 # Version information for this restart file 
 # current date 2022-11-29 19:30:18.140
 # current working dir /home/yx2892/comp-lab-class/Week12/Runs/Proton
 # Program compiled at                              Sat Dec 12 18:27:15 EST 2020
 # Program compiled on                                         cs001.nyu.cluster
 # Program compiled for                                                nyu-intel
 # Source code revision number                                       git:8c64c6e
 &GLOBAL
   PRINT_LEVEL  LOW
   PROJECT_NAME proton_aimd_1ns_every0.5fs
   RUN_TYPE  MD
   WALLTIME 21600
 &END GLOBAL
 &MOTION
   &GEO_OPT
     OPTIMIZER  BFGS
     MAX_ITER  100
     MAX_DR     3.0000000000000001E-03
     &BFGS
     &END BFGS
   &END GEO_OPT
   &MD
     ENSEMBLE  NVT
     STEPS  2000000
     TIMESTEP     4.9999999999999994E-01
     STEP_START_VAL  1500
     TIME_START_VAL     7.5000000000000762E+02
     ECONS_START_VAL    -1.1027288227596132E+03
     TEMPERATURE     3.0000000000000000E+02
     &THERMOSTAT
       TYPE  GLE
       REGION  MASSIVE
       &GLE
         NDIM  5
         A_SCALE     1.0000000000000000E+00
         A_LIST     1.8595758612559999E+02    2.7263853498399998E-01    1.1526100454610001E+01   -3.6414578262600003E+01 \
             2.3173375816020001E+02
         A_LIST    -2.7809524712060002E-01    8.5951591808710006E-05    7.2189048017650004E-01   -1.9844539343859999E-01 \
             4.2409257583420001E-01
         A_LIST    -1.4825808131210000E+01   -7.2189048017650004E-01    1.3590902121280000E+00    5.1498896280349999E+00 \
            -9.9949268450990001E+00
         A_LIST    -1.0372189126880000E+01    1.9844539343859999E-01   -5.1498896280349999E+00    2.6661910891169999E+01 \
             1.1507715495310000E+01
         A_LIST     2.1801346360420001E+02   -4.2409257583420001E-01    9.9949268450990001E+00   -1.1507715495310000E+01 \
             3.0958394565589998E+02
         &THERMOSTAT_ENERGY
               3.2148438718947836E-03
              -2.2018965672892720E-03
              -1.4104253693952397E-03
               2.7489506473452347E-03
              -2.1114433311306868E-02
               2.6396298612859654E-03
              -5.3399235205279470E-03
              -2.2327051989793033E-03
               3.4284984435094703E-03
               3.9121654528237295E-03
               5.9020842834967523E-03
              -5.0142346479780942E-03
               3.5435371423195804E-05
              -7.6738350742516772E-03
               6.3228658834802026E-03
              -4.0814898986924423E-03
               2.9922923304685311E-03
               1.5824100569199705E-03
               4.2009452427377476E-03
               1.2345246845162133E-03
               4.7398824924401979E-03
               3.5056206244616175E-04
              -2.2850165588039631E-03
              -3.3922790340535488E-03
              -1.4327978459563072E-03
              -9.8675889662731449E-03
               2.0037661533322426E-04
               5.3873267558971426E-04
               1.4747981336746395E-03
               4.1722624652319471E-03
              -2.0511635576935050E-03
              -6.8978493822783237E-03
               1.1334448167111858E-02
               3.8715616976305808E-03
              -1.3222678817225260E-02
               1.4427401657853008E-02
              -2.0748393159713552E-03
              -4.5008574749703691E-03
               4.0784257747222196E-03
              -1.1520116825185570E-03
               4.5667660887165618E-03
              -4.4951161831859239E-04
               9.6014833550435424E-03
               3.8377622686725783E-03
              -1.3839342849181172E-03
               5.2934907358083106E-03
              -2.9619047822088619E-03
               1.7033324439723343E-03
               2.0782825551042394E-03
               6.5911728962368731E-03
               8.5974067293954329E-04
               4.8278040269368638E-04
              -8.7026694777148934E-03
              -2.3800785715605908E-03
              -6.0892786988356517E-03
               2.1353821738132731E-03
               5.6058320155603035E-04
               4.8627526124836836E-04
               4.6477900933252457E-03
               4.3876435323551209E-04
              -5.3021184191817021E-03
              -4.6869764295191458E-03
               1.7056012218664485E-02
               2.6114930495414897E-03
               2.2253198659783341E-03
               6.4132848734810149E-03
              -3.0203124945564512E-03
              -6.0759523842639964E-03
               1.1510733880791855E-02
               6.1159662893370426E-03
               2.7021525598428537E-03
               2.4258512058136044E-02
              -7.6797852622788126E-04
              -8.5192982823203208E-04
              -1.0943263970385605E-03
              -1.1418699444809161E-02
               3.6836607918516368E-03
               4.7388094451585030E-03
               3.0314176066033008E-03
               1.9061152706209836E-03
               1.9735455364512291E-03
              -4.3663255829628550E-03
               4.4307425503140527E-03
              -1.7633743781044885E-04
               6.5812727519370829E-03
               3.5554835266141333E-03
              -4.3888242522245290E-03
               3.2079461865066293E-03
               5.2573223282325427E-03
              -9.4390235715459628E-03
               1.9105986863900536E-03
              -4.6319975378289148E-03
               3.2322414318087011E-03
              -6.0462986647553821E-03
              -5.0418504221067710E-03
               6.9405300343197106E-03
               6.2216018454697777E-03
              -1.4332659018991751E-03
               8.4485939075247037E-03
               9.0933210777289393E-03
              -7.9838553496165473E-03
              -2.2561790783885032E-03
              -1.3605907475482842E-03
               2.5194870721501200E-03
              -5.9762620684943460E-03
               6.4530904026615906E-03
               8.3952154471838448E-03
              -2.9633616514641112E-03
               8.4636819121578933E-03
              -1.1168739121592310E-03
              -1.8537609475412279E-03
              -4.6018619207121910E-03
               7.5527859069203030E-03
               2.9736847512986842E-03
               4.0785943016344488E-03
               6.0954760706292618E-04
              -9.1680730915621421E-03
               2.4559413210455028E-03
              -1.2548338427169554E-04
              -4.4121532483287084E-04
               8.2652011214130522E-04
               2.7973532248963605E-03
              -1.6308970890513341E-03
              -3.5819304926051343E-03
               1.3987473317849549E-03
              -8.7586082569329968E-03
               9.1426056425165953E-03
               6.0681714056150249E-04
               3.2643573200920447E-03
              -3.8616489590267409E-03
              -6.0558356033566423E-03
               8.1805414481336096E-03
              -2.3217613258362086E-03
              -5.9795216507439117E-03
               3.0877808776136289E-03
               1.9630840952487489E-03
               9.2980957646438054E-05
               1.7101738050162454E-04
              -1.5868448308848824E-04
              -9.2475027101789672E-03
              -3.4921579186000294E-03
               1.8005694106624386E-02
               1.3814176123908770E-02
              -1.2092038601515760E-02
               3.9800988313544346E-03
               1.2629216903459824E-05
               8.3554779558809387E-03
               5.5573040392896504E-03
              -5.8908129822715205E-04
              -7.7762779464740726E-03
              -2.0759541521839536E-02
               6.9666747251790314E-03
               4.0933230055174453E-03
               1.6117008039228601E-03
               8.0161483523227672E-03
               5.0858454559947457E-03
              -2.3684774052238596E-03
              -5.4166404796297304E-03
               2.6258706357972276E-03
               6.4621618142394260E-03
               7.0450003610129485E-04
              -6.7272178902388390E-03
              -1.4937609989246769E-03
               1.8418832154821090E-03
               5.3592664975136966E-03
               2.2229806945037900E-02
              -2.9906776143592871E-04
              -1.5719377757132023E-02
              -3.8614221369365838E-04
               1.6556893969571402E-03
              -3.7858193032652785E-05
               2.0006207455310933E-03
               3.3248078200273897E-03
              -2.5635867561667029E-04
               1.9853501236318231E-02
               7.1023393484171693E-03
               3.4557847281141606E-02
               2.3566010966726307E-03
               5.4145192885806060E-03
               1.4609555629556822E-03
               2.4700031020636281E-03
              -1.6001141144738260E-02
               2.6500729584482026E-02
              -6.4170444278396545E-03
              -3.8874258827034723E-04
               6.7881070007278822E-04
               1.5634454071874516E-02
              -1.7087260922942198E-03
              -4.5837219851167163E-03
               5.1595532973247888E-03
              -6.8962186673114994E-03
               1.2634802564012769E-03
              -8.6542199822714288E-04
               4.6503901951818671E-03
               3.9979170038063980E-03
               6.9149492165331465E-03
              -1.1623110308080171E-02
              -7.8149959849629197E-04
               1.5696666490441309E-03
              -4.9825623119245542E-03
               5.7051159878070681E-03
               1.5385734714265993E-03
               3.8973530946359069E-03
               5.8190277040471002E-03
              -8.1349405475140031E-03
              -6.2228486041582742E-03
               1.7634892103547347E-03
              -3.4467018559112530E-04
              -7.4097690997579103E-03
               1.7244124171991795E-02
              -5.1683470031594929E-03
              -6.2910640094396373E-04
               8.4558539002266330E-04
               1.4104659649227676E-03
              -6.5442129795934339E-03
               5.6738233572603677E-03
              -2.0749742168411716E-03
              -6.4655217501568695E-04
              -2.0196168837579101E-04
               3.8297810818623394E-03
               4.3673753955726321E-04
              -3.4980889924639894E-03
              -1.0398120590657920E-02
              -3.2824448595455036E-04
               1.3935250869299457E-03
              -5.8905246632672999E-03
              -1.7595310442073328E-03
               6.8568637884868743E-03
              -2.2966451389004596E-03
               2.0080908185281222E-05
              -8.9576187839786694E-04
               2.7188845519959587E-05
               8.1653235120291330E-03
              -2.4711267873166517E-03
              -3.7354831415541672E-03
              -4.3801320184202307E-03
              -9.3192298286110201E-03
               2.4149976221735717E-03
              -5.5110740094255022E-04
               5.0670374363747349E-04
               1.4330435717712906E-03
               7.9318541581028471E-03
               2.8545292509881588E-03
              -3.3147727643387972E-03
               1.4141491280272970E-04
              -2.7162138308642566E-03
              -1.2917968833846059E-03
               1.8615793446203001E-03
              -2.1220969163819096E-03
              -1.9187234431521482E-03
               3.0374477477594841E-03
              -1.2188416236320282E-03
              -5.3742554864456204E-03
              -7.7490540277894643E-03
               6.1986764436319196E-03
              -2.1817011581763087E-03
              -4.4205779366354872E-03
               3.4639778080888454E-03
              -8.9000656523910079E-03
              -1.3426817435418350E-03
               1.2043241715495779E-02
               4.8087945997188405E-03
               3.8681246950060064E-03
              -1.1946046641625929E-04
               3.1302915116839638E-03
               3.1379459075804285E-04
              -1.3258221846989375E-03
              -9.5241141145175560E-04
              -5.3592905664258308E-03
               6.7487521842655874E-03
               2.5962596957605439E-03
              -1.4094845941153701E-03
              -3.4125016879383721E-03
               5.4411206482451423E-03
               5.2258001821420198E-04
              -5.8081009433081829E-04
              -1.5777852029470775E-02
               1.2729216591962597E-02
               5.9686498780621832E-03
              -1.0115874893634495E-02
               2.8369539246595331E-03
              -1.5503081076940920E-03
               2.1033856772733300E-03
               1.2657436377198565E-02
               4.2857215047602108E-07
               4.4299084456853556E-03
              -7.2061749975697977E-03
              -4.7169773637396944E-03
              -1.7876347283997753E-02
               2.7805960285270058E-04
               2.1889596302219667E-02
               8.9746374786451482E-04
              -5.3495138095107546E-03
              -4.8200584898396136E-03
               3.7351988685380409E-03
               8.1764900670715981E-03
              -5.5935053722624703E-03
               1.5114382465549787E-02
               4.5865672883280140E-03
              -1.3818607398946303E-02
               4.6624267880409475E-03
              -3.3405832446977415E-03
               3.6686597746943732E-03
               1.4156487375891416E-02
               3.3723837267498878E-03
              -7.7234825808721926E-03
              -7.2306618400417742E-03
              -7.8606580535208227E-03
               1.2998315581607394E-02
               8.2166963655574288E-03
              -2.2372175439418574E-03
              -3.1232857723045371E-03
               5.6110598911151268E-03
              -5.1075267627454053E-03
               3.1922780556090254E-03
              -3.9442372449625240E-03
              -7.3963249736245873E-03
               4.6405591389949291E-03
              -1.1809792667221901E-02
              -6.2675135797741911E-03
               5.4553607842817314E-04
               1.3634679251970545E-03
               2.1804871582781805E-03
              -4.2624238725828250E-03
              -7.5428278854457083E-03
               1.2795991252535536E-02
               8.2515199556333230E-03
              -1.6797587013941714E-03
               8.6578477477190514E-06
               7.9463891019766135E-04
              -7.6522614364979225E-03
               4.5947861786249170E-03
               5.7502879494217762E-03
              -4.6087669093556917E-03
               1.2925217895432314E-03
              -3.9437344792276402E-03
               2.1245227834159252E-03
               4.8286167589824611E-03
               3.5311521862462864E-04
               4.3975592930479597E-03
              -1.1629191557995492E-02
              -7.0264125031911547E-03
               7.8976609586090072E-04
               7.4540493193043910E-03
               7.9522788345640222E-03
               4.2543975895776133E-03
               3.8362035690367030E-03
              -7.0147613130126761E-03
               9.2631775845873152E-03
               3.2538924530657008E-03
              -8.4620977225025925E-03
               7.6824361508700534E-03
              -1.2315916103072505E-02
              -2.0275942868842097E-04
               4.7400738773839725E-04
              -1.5158318351303005E-03
               1.2104867460462773E-03
              -1.3037181802315476E-02
              -4.4163524249273283E-05
              -8.3121488825317451E-04
              -3.7321821626321739E-03
               4.8698163787861147E-04
               1.4234887464807154E-02
               4.1310194365346293E-03
              -5.5893756374987644E-03
               2.0317144580147442E-03
               1.5274928354220353E-02
               2.9304284746159604E-03
              -1.3749597393278062E-02
              -1.2869112448258091E-02
               2.2424817786272236E-03
               5.0338691984141426E-03
              -2.9966341324777707E-04
              -4.3038593733984078E-03
              -1.1018216999527557E-04
               5.0888454323079852E-03
              -1.6774210381247663E-02
              -1.5798078358670760E-02
               4.0102580465551417E-03
               8.0554829713504299E-03
               6.4035800634232396E-03
               6.6481194299663031E-03
              -1.3966485093208202E-03
              -2.9890776678957167E-03
              -2.2187122768060705E-02
               5.5100805617133179E-03
               6.8205637352228366E-03
               7.0348254917579692E-03
              -1.3258124186156075E-03
               7.8023059691488810E-04
              -5.4670239693867867E-03
               2.2950414871707571E-03
               7.2108203095895714E-04
              -1.6990869866476024E-03
               8.3001392445389635E-03
              -4.7128037274995783E-04
              -8.2042004000722310E-04
               1.2115937922134294E-03
              -5.2006435885438062E-03
               6.2089427447004834E-04
              -5.1851390890051540E-03
               7.8316994449717028E-03
              -7.2049166511338608E-03
              -3.0258975908018307E-03
              -3.3692784299687740E-03
              -2.0862928822956454E-03
              -3.6395471060735522E-03
               1.7104531423336989E-03
              -1.9314177309706505E-03
               4.4689212453487880E-03
              -2.8798235335018478E-03
              -4.9264093250617064E-03
               1.5191670851989302E-03
              -7.5075739492100162E-03
               2.5024682969954515E-03
               8.3497432340860923E-03
              -4.0844481344090848E-04
               1.6793979035007846E-03
              -6.0001931307134134E-04
              -1.9495399373653784E-03
              -3.0652802918853085E-03
              -1.5402170926850382E-03
              -2.8887201120159143E-04
               2.1997583454408396E-03
               1.4470627258112259E-02
               3.6841124036224304E-04
               2.7917784569604660E-03
              -5.2260819792366870E-03
               3.9739812397986225E-03
              -6.8001537004919697E-04
              -2.2410704041103124E-03
              -6.7988204490070196E-03
              -9.1422576089170773E-03
               3.1845161455547931E-03
               9.4739040375898670E-03
               5.9734420622554003E-03
              -3.8611469292189377E-03
              -7.1875017901221975E-04
              -3.4111571272730820E-03
              -6.1693697856230936E-03
               9.2987364309937252E-03
              -8.0490989851439501E-03
               2.4697629582426770E-03
               1.2036478989670977E-02
               8.0710818037076364E-04
               7.7521218613077307E-03
               8.6824454499126666E-03
               9.6428780653982100E-03
               2.7748941040752402E-03
              -1.6040183375031384E-02
              -3.0075685962496095E-03
              -5.0935276781985360E-03
               7.7116415289538677E-03
              -1.0030957577883519E-04
               7.5863027896507017E-04
              -8.9584457317879451E-03
              -1.1470358749341929E-02
               4.3676927838632261E-04
              -1.9475158891935993E-03
               7.0868182143477869E-03
               1.1514685667168890E-02
               4.5162608341903577E-03
               4.0294924775209481E-03
               1.0067693196629290E-02
               5.8759549949828323E-03
               3.4606390449760452E-03
              -1.2135532784148998E-02
              -1.9090287606227721E-03
               7.8666705636386246E-03
              -2.0848185357949388E-03
               2.3199341145318368E-03
               5.3648771390430361E-04
               3.5279778848723413E-04
               4.1305351281830977E-04
              -2.6720887051114809E-03
               6.9234987464615160E-03
              -6.9315552746676361E-04
               3.4118945029372330E-03
               3.4056720583937796E-03
              -8.0794689570043519E-03
              -2.2566996901304572E-03
              -4.6558931311193119E-03
              -1.3123489315070001E-03
               8.5849485783238695E-04
               4.2897378885769586E-03
              -3.7094582344016332E-03
               7.9584850506469289E-03
              -5.3738310909979608E-03
               7.5685371000221331E-03
              -1.7555943297315820E-03
               1.6376093236763582E-03
               1.1820297044511186E-03
               3.4638016845795502E-04
              -5.7275084721388880E-03
              -6.2440851467906696E-04
              -2.5076793143582301E-03
               9.0712544004681165E-04
               3.3369355918080085E-03
               1.3269367399761146E-03
               6.9325822364650260E-03
               1.8880412173653098E-03
               3.0680698301259659E-03
              -8.8755220966953065E-03
               1.1780122330029213E-02
               2.2423009853210908E-03
              -9.6520433089959737E-03
              -5.6884126703063793E-03
               2.9581367755482113E-03
               8.1481278550413639E-03
               4.0347678662430659E-03
              -3.5569262958654113E-03
               6.4844168010175490E-03
              -1.7269329564196371E-03
              -8.6901235090469497E-03
               1.5795768733997125E-02
              -1.9796746685287768E-02
              -4.8676234960565827E-03
               5.6286261230016465E-03
               5.3390723099179804E-03
               1.0827399502695611E-04
              -1.2217657547824065E-02
               7.1274771910813002E-03
               4.3745991511237272E-04
               6.3460501001170091E-03
              -2.6442766704919737E-03
               2.1212674973119052E-03
              -5.5354481941165884E-03
              -4.1586433884650727E-03
               8.2776635909664140E-03
              -2.6843390112428426E-03
               7.0740963794868085E-03
               9.9059152929992823E-03
              -8.5700206441603078E-03
              -1.0964857368585363E-02
               1.4721292909894528E-03
               1.7914702987778430E-03
               6.5410977769389262E-04
              -2.2920659560590286E-03
              -2.7045621706223840E-03
               1.2766698003607109E-02
              -1.7169516991099497E-04
              -7.5373515593668301E-03
              -2.5254262944035943E-03
               1.7826005295808718E-03
               2.8825882191077360E-03
              -6.1921304483562173E-04
               4.4984905041616854E-03
               1.5300119752336585E-03
               7.2216574320256161E-03
               8.5114695766734180E-03
              -7.1447304292584415E-03
              -4.1879022618311838E-03
              -7.9048896333521411E-04
              -4.1290245719186646E-03
               8.4896541557211538E-04
               1.9778449536946982E-03
              -4.6862953651117731E-04
              -2.1199824737234058E-03
               1.1850007807127819E-02
              -2.5844625640595608E-03
               1.0685646372724279E-03
               6.1640474614095414E-03
              -2.0913155818260520E-03
              -2.5629275179492178E-03
              -5.8010605000222365E-04
               1.0412021457266270E-02
               2.9237615488736193E-03
              -1.6126085304982098E-04
              -4.9831635660048130E-04
              -7.6483364844792722E-04
              -4.6956289056915941E-03
              -2.8284146691188025E-03
              -3.0441868862328999E-03
              -7.5594055983512392E-03
               7.8575073270044909E-03
               3.3979245707570719E-03
               9.3585416398265231E-03
               7.0390585954321220E-03
              -1.0396521094638398E-02
         &END THERMOSTAT_ENERGY
         &RNG_INIT
Wiener process for Thermostat # 1        1 F T T   1.0570193072987602E-01        2554248455.0        3733268398.0        2096963647.0         915983833.0        1292997779.0         989563289.0             12345.0             12345.0             12345.0             12345.0             12345.0             12345.0             12345.0             12345.0             12345.0             12345.0             12345.0             12345.0
Wiener process for Thermostat # 2        1 F T T  -5.0729818522276993E-01         187792199.0        1332764939.0        1272087322.0         282682701.0         988697858.0        4086000388.0        3692455944.0        1366884236.0        2968912127.0         335948734.0        4161675175.0         475798818.0        3692455944.0        1366884236.0        2968912127.0         335948734.0        4161675175.0         475798818.0
Wiener process for Thermostat # 3        1 F T T   8.9774137220556466E-02        3755061031.0        1753083868.0        1351179932.0         343881147.0        3312142877.0        1244557929.0        1015873554.0        1310354410.0        2249465273.0         994084013.0        2912484720.0        3876682925.0        1015873554.0        1310354410.0        2249465273.0         994084013.0        2912484720.0        3876682925.0
Wiener process for Thermostat # 4        1 F T T   2.1447125495896904E-01        2430503636.0         902227617.0        3039217662.0         205693714.0        2375800914.0        4220709598.0        2338701263.0        1119171942.0        2570676563.0         317077452.0        3194180850.0         618832124.0        2338701263.0        1119171942.0        2570676563.0         317077452.0        3194180850.0         618832124.0
Wiener process for Thermostat # 5        1 F T T  -7.4974817695318574E-01        3949927612.0        4293465109.0         224208328.0         677588237.0        2173092809.0        2514687022.0        1597262096.0        3906379055.0        3312112953.0        1016013135.0        4099474108.0         275305423.0        1597262096.0        3906379055.0        3312112953.0        1016013135.0        4099474108.0         275305423.0
Wiener process for Thermostat # 6        1 F T T  -2.3195632299180402E+00        4147399821.0         968438491.0         174961265.0         382156541.0        3672303660.0        2385050302.0          97147054.0        3131372450.0         829345164.0        3691032523.0        3006063034.0        4259826321.0          97147054.0        3131372450.0         829345164.0        3691032523.0        3006063034.0        4259826321.0
Wiener process for Thermostat # 7        1 F T T  -8.3038096976097500E-03        3725962017.0        3124905816.0        1692649901.0        3685368087.0         990134651.0        3321809881.0         796079799.0        2105258207.0         955365076.0        2923159030.0        4116632677.0        3067683584.0         796079799.0        2105258207.0         955365076.0        2923159030.0        4116632677.0        3067683584.0
Wiener process for Thermostat # 8        1 F T T   7.2955713326517235E-01        1426374835.0        1022225665.0        3431852557.0        2945126969.0        1347790872.0        2047858768.0        3281794178.0        2616230133.0        1457051261.0        2762791137.0        2480527362.0        2282316169.0        3281794178.0        2616230133.0        1457051261.0        2762791137.0        2480527362.0        2282316169.0
Wiener process for Thermostat # 9        1 F T T  -8.3876742673612970E-01        3633457436.0         863053678.0         665967915.0         928783000.0        4027924725.0        3556250224.0        3777646647.0        1837464056.0        4204654757.0         664239048.0        4190510072.0        2959195122.0        3777646647.0        1837464056.0        4204654757.0         664239048.0        4190510072.0        2959195122.0
Wiener process for Thermostat # 10       1 F T T  -6.7138423863751628E-01        3282585865.0         909372753.0         488063086.0        2442536289.0         174422437.0         477575080.0        4215590817.0        3862461878.0        1087200967.0        1544910132.0         936383720.0        1611370123.0        4215590817.0        3862461878.0        1087200967.0        1544910132.0         936383720.0        1611370123.0
Wiener process for Thermostat # 11       1 F T T  -7.2169956836733329E-02        3039538231.0          25912629.0        1608189467.0        1823124278.0        2331127605.0        2449500504.0        1683636369.0         362165168.0         814316280.0         869382050.0         980203903.0        2062101717.0        1683636369.0         362165168.0         814316280.0         869382050.0         980203903.0        2062101717.0
Wiener process for Thermostat # 12       1 F T T  -6.7722400494670465E-01        2762226669.0        4262778377.0        2250707948.0        3120407528.0        3704866228.0        1185520965.0         272317999.0         166758548.0         310112982.0         201045826.0        1680231254.0         118290799.0         272317999.0         166758548.0         310112982.0         201045826.0        1680231254.0         118290799.0
Wiener process for Thermostat # 13       1 F T T  -7.3817531449270457E-01        3689403510.0         367299738.0        3636386471.0        1925893934.0        3355800516.0        3520562622.0        2245755202.0        1652682525.0        2865544364.0         721509566.0         209733568.0         592362218.0        2245755202.0        1652682525.0        2865544364.0         721509566.0         209733568.0         592362218.0