 # Version information for this restart file 
 # current date 2022-11-29 19:42:20.662
 # current working dir /home/yx2892/comp-lab-class/Week12/Runs/Proton
 # Program compiled at                              Sat Dec 12 18:27:15 EST 2020
 # Program compiled on                                         cs001.nyu.cluster
 # Program compiled for                                                nyu-intel
 # Source code revision number                                       git:8c64c6e
 &GLOBAL
   PRINT_LEVEL  LOW
   PROJECT_NAME proton_aimd_1ns_every0.5fs
   RUN_TYPE  MD
   WALLTIME 21600
 &END GLOBAL
 &MOTION
   &GEO_OPT
     OPTIMIZER  BFGS
     MAX_ITER  100
     MAX_DR     3.0000000000000001E-03
     &BFGS
     &END BFGS
   &END GEO_OPT
   &MD
     ENSEMBLE  NVT
     STEPS  2000000
     TIMESTEP     4.9999999999999994E-01
     STEP_START_VAL  1582
     TIME_START_VAL     7.9100000000000944E+02
     ECONS_START_VAL    -1.1027288227596132E+03
     TEMPERATURE     3.0000000000000000E+02
     &THERMOSTAT
       TYPE  GLE
       REGION  MASSIVE
       &GLE
         NDIM  5
         A_SCALE     1.0000000000000000E+00
         A_LIST     1.8595758612559999E+02    2.7263853498399998E-01    1.1526100454610001E+01   -3.6414578262600003E+01 \
             2.3173375816020001E+02
         A_LIST    -2.7809524712060002E-01    8.5951591808710006E-05    7.2189048017650004E-01   -1.9844539343859999E-01 \
             4.2409257583420001E-01
         A_LIST    -1.4825808131210000E+01   -7.2189048017650004E-01    1.3590902121280000E+00    5.1498896280349999E+00 \
            -9.9949268450990001E+00
         A_LIST    -1.0372189126880000E+01    1.9844539343859999E-01   -5.1498896280349999E+00    2.6661910891169999E+01 \
             1.1507715495310000E+01
         A_LIST     2.1801346360420001E+02   -4.2409257583420001E-01    9.9949268450990001E+00   -1.1507715495310000E+01 \
             3.0958394565589998E+02
         &THERMOSTAT_ENERGY
               2.7199236735402439E-03
              -1.4788324012132057E-03
              -1.7197781876319941E-03
               2.9973125428054224E-03
              -1.8975303239687529E-02
               8.1189602791046896E-04
              -5.6345947100347989E-03
              -1.7606846630046212E-03
               1.9622825112920669E-03
               3.1063234142572251E-03
               7.3076908659574684E-03
              -3.9465683070189703E-03
              -1.5327838012191143E-03
              -8.1492921943611234E-03
               7.6880729681301175E-03
              -5.1926355082427059E-03
               5.5247549416058712E-03
               1.9903471868134332E-03
               3.2296439195211089E-03
               1.4809364365081074E-03
               3.9967950282999900E-03
              -1.4856199875314014E-03
              -1.6934619163780343E-03
              -4.8471715143813734E-03
              -2.4924363405983822E-03
              -8.1599006531002331E-03
               1.5032378136682631E-03
               3.2460372066731838E-04
              -3.1236466950809900E-04
               4.8548416292778108E-03
              -3.2291578869324531E-03
              -6.1606621778153283E-03
               1.2451388350322719E-02
               1.6007100960942623E-03
              -1.0749032955563500E-02
               1.3368782771031030E-02
              -1.6018254660892070E-03
              -7.4298533157286829E-03
               4.3158419500560182E-03
              -1.6089806267721878E-04
               4.5164960487004491E-03
              -2.6500830133870888E-04
               7.8338910953710660E-03
               4.3337761427616273E-03
              -6.3577869083390444E-04
               5.5211161285144330E-03
              -5.4086166301831121E-03
               3.1686812358664644E-03
               1.5895964425141165E-03
               6.2489502058695173E-03
               1.7059558385186559E-03
               6.9050567107942331E-03
              -1.1118895814760147E-02
              -2.4375382258239944E-03
              -5.4231313759684078E-03
               2.6587210062809967E-03
               7.7770677580287113E-04
               1.6522228797337217E-03
               5.2123469606383714E-03
               1.7736644341212165E-04
              -4.6732414961646231E-03
              -4.7120657687803923E-03
               1.6774703974977542E-02
               2.9954526388125849E-03
               1.5713386129280562E-03
               7.4009204504452515E-03
              -8.8140888162397334E-04
              -5.5028819471427976E-03
               9.2179765348256795E-03
               7.3402709738436935E-03
               4.1237778259189126E-03
               2.3918013640585122E-02
              -3.3507835579659395E-04
               3.6273577909234878E-04
               2.5190606223073541E-04
              -1.2484981686672607E-02
               3.8731477002474949E-03
               1.7394643293498194E-03
               4.7308372768940588E-03
               1.5426711059412488E-03
              -2.5133053048921241E-03
              -5.8490219503777368E-03
               9.6982031429785915E-04
               6.8289729150588889E-04
               5.8758643795412749E-03
               3.8421817202550440E-03
              -1.9320610155182281E-03
               2.6299833975483378E-03
               5.6773691270015298E-03
              -9.4590739923973936E-03
               1.2125907646287131E-03
              -6.3592084005828203E-03
               2.7762592338631963E-03
              -4.9200908133239457E-03
              -5.2445769614802278E-03
               6.0469185484776115E-03
               8.6409212424764584E-03
              -2.7454098323327229E-04
               1.0049295510275081E-02
               7.9983245462087304E-03
              -7.7062339617935457E-03
              -3.6707365246912271E-03
              -1.0048447025977000E-03
               2.3409923717940509E-03
              -1.0538227663630769E-02
               6.4721069080583560E-03
               7.4331653013461800E-03
              -4.6862823122485690E-03
               8.7298770584073263E-03
              -2.4223354673544918E-03
               9.0750306438748898E-05
              -4.0707048900062090E-03
               8.0473670839174075E-03
               1.0036469687436341E-03
               4.7273639470642014E-03
               3.2761905531076326E-04
              -8.4201620534801614E-03
               7.0492394770169673E-04
              -3.3745858029777783E-04
              -3.1976139981958489E-04
              -5.7454974985586701E-04
               2.0169796703936780E-03
               1.2681419706201253E-03
              -2.8758795069540647E-03
              -1.6796740082793897E-04
              -7.3252038672541372E-03
               7.0951581897783032E-03
              -9.5468533525650641E-04
               3.8022942603759082E-03
               6.7051602618276019E-04
              -6.7481577099636238E-03
               6.4809719976229680E-03
              -2.6024594401986103E-03
              -5.5849131972777397E-03
               4.6714882419215970E-03
               2.3841300440045183E-03
               1.5913511207854556E-03
              -5.6964247775258129E-04
              -1.9969891552093035E-03
              -7.3721956374026808E-03
              -6.9112937986452200E-03
               2.0029593029759610E-02
               1.4122243850211103E-02
              -9.6732476112088572E-03
               6.9251554816126886E-03
               2.4432547205960949E-04
               8.6851184562855913E-03
               7.7049650639473442E-03
              -4.2363562632919045E-04
              -8.6901041091532200E-03
              -2.0819240826155737E-02
               7.9869473415323852E-03
               5.6693449607544237E-03
               1.7607142627777163E-03
               7.4066299763283563E-03
               3.9992657332030791E-03
              -1.2410229607650090E-03
              -5.3351485671669207E-03
               3.7454994418704779E-03
               5.1448464094307990E-03
              -3.0347794976604448E-04
              -7.6308882821652891E-03
              -1.9619839831797807E-03
               2.3004570174403795E-03
               6.8926116343700477E-03
               2.2080853110097939E-02
              -1.3784642067924003E-03
              -1.8350801851460232E-02
              -7.6954476597304830E-05
               1.2458880110579021E-03
              -4.6134097784471478E-04
               3.2567266718644679E-03
               1.6798781471267959E-03
              -8.3156947505442580E-04
               2.0417697123945089E-02
               7.0884903011351986E-03
               3.4938130700736682E-02
               1.6191920596960187E-03
               4.8196323560429580E-03
              -1.7645194261442818E-04
               3.6760463651873423E-03
              -1.9446457491831659E-02
               2.8086964733530853E-02
              -6.0168044264896818E-03
              -4.8312404522382033E-04
               8.6617175405133418E-04
               1.5594490124650024E-02
              -4.5065299123732208E-03
              -4.8864914972832282E-03
               1.7953807171819205E-03
              -7.3944991272515319E-03
               6.4581679890813037E-03
               5.5136388763135039E-03
               4.8807213868956320E-03
               1.9767343145075914E-03
               8.1017824567370042E-03
              -1.3549091141499632E-02
               1.2455585885688583E-04
              -3.0131002502045536E-03
              -2.0281697447069006E-03
               6.8001464232633540E-03
               9.8560049323124306E-04
               1.1587720587679724E-03
               5.8871040398070004E-03
              -9.2187674216527432E-03
              -8.2174271123160777E-03
               4.0873196259326927E-03
              -5.1111308881949982E-04
              -3.8042722050936882E-03
               1.7050865097738538E-02
              -5.6497320119929624E-03
              -7.9804111088895143E-04
              -7.8655535579063109E-04
               4.1436341482052293E-04
              -6.0282532381563626E-03
               7.8796051252282544E-03
              -8.4359793388745689E-05
               6.7493548601112727E-04
              -3.1393623973445116E-03
               2.6877418400102549E-03
              -4.5984827535689891E-04
              -2.3869893613093752E-03
              -1.3337406019508309E-02
               2.0719077382694161E-03
               1.0343705670441510E-04
              -7.9849226355117268E-03
              -2.2117388628879425E-03
               5.5826776158210576E-03
              -1.9264083338436941E-03
               6.1889745544646893E-04
              -1.9587984734420914E-03
               2.1613403285019360E-03
               1.0576737261082617E-02
              -4.4196412705691619E-03
              -1.2741417148066419E-03
              -4.2608943589249777E-03
              -9.3410300298428887E-03
               2.7201286860697249E-03
              -1.0234997342776029E-03
               5.6815859978965255E-04
               2.5147686176000160E-03
               9.2105877569727563E-03
               2.3610793322180442E-03
              -4.1948079629354007E-03
               1.5581293484599990E-03
              -3.1734317083068645E-03
              -1.0694320519643501E-03
               2.0162140264342330E-03
              -1.2198342710876085E-03
              -1.7880556789652492E-03
               5.0519353065730877E-03
               4.9766928442299878E-04
              -7.8734121469661352E-03
              -7.6564279498161757E-03
               5.2269029959335078E-03
              -3.2406875201069531E-03
              -4.7608243619865912E-03
               4.5420157746548576E-03
              -8.1440412612124938E-03
              -2.6765472343211116E-03
               1.2192628771895322E-02
               6.2556406122299523E-03
               4.7675308943571672E-03
              -6.8561536542316827E-04
               3.3957408856907768E-03
              -8.0542557373246813E-04
               9.6960369855950720E-04
              -1.5616358359287084E-03
              -7.2609888876670455E-04
               5.1637569240973978E-03
               1.5085135655664597E-03
              -4.1483681204027697E-03
              -1.4895208299072061E-03
               4.4671212774802429E-03
               1.1107865575322653E-03
              -9.1429472911053623E-04
              -1.4572292646770976E-02
               1.2598489295118274E-02
               5.1103116629000042E-03
              -1.0819369766172980E-02
               2.4220275109319385E-03
              -1.5691650144594364E-03
               2.9995633799071459E-03
               1.1826227849984942E-02
              -1.4318394687180571E-03
               2.4060784423829843E-03
              -5.0346837080992761E-03
              -5.8080509012633794E-03
              -1.5766531852632961E-02
              -2.4552373688641583E-03
               2.1779438463328721E-02
              -4.2048667875334571E-04
              -5.0466780914450882E-03
              -4.6662962181269040E-03
               3.8057830120047055E-03
               6.9603842686636816E-03
              -4.3303170574551996E-03
               1.3909650689366405E-02
               4.8403889226727500E-03
              -1.2879937564237028E-02
               5.6246095739513067E-03
              -2.1296665529266447E-03
               3.6875311896633202E-03
               1.4393503465378110E-02
               3.2365149454687417E-03
              -8.5284282307534886E-03
              -6.0643641618441727E-03
              -8.6693778817867537E-03
               1.3476221098484507E-02
               9.1838912863362789E-03
              -1.5548636041159995E-03
              -2.6840682557381394E-03
               3.4201894394496140E-03
              -5.2658195934923817E-03
               3.4562174307452400E-03
              -2.7028198190255219E-03
              -4.6066945054927403E-03
               1.5621558601006439E-03
              -1.2320676060310629E-02
              -5.1964470404502272E-03
               3.0665396133475881E-03
               5.6690685203338014E-03
               2.8671817941044535E-03
              -2.5618037896451393E-03
              -1.0447987845753393E-02
               1.3927507156784678E-02
               6.7441617229155575E-03
              -1.4499536962934931E-03
               3.2830873385993731E-04
               1.1624408740521662E-03
              -8.3644869292331409E-03
               4.8244314866940745E-03
               4.0791436500171412E-03
              -2.8906473969827315E-03
               6.2840531134461205E-04
              -2.2200844324567412E-03
               4.0213194294370946E-04
               3.3950150836695499E-03
               3.7089834432117556E-04
               5.0399320410984003E-03
              -1.0258114299933480E-02
              -8.6839798245348775E-03
               1.3394275012464443E-03
               8.0072091029593975E-03
               8.3673519981726889E-03
               3.4513443402289833E-03
               3.0475353801168140E-03
              -1.1321116632893825E-02
               7.8281277743054590E-03
               9.9843890213519395E-04
              -5.5868030298564571E-03
               1.1613451614698258E-02
              -1.3213485548624953E-02
               1.8593609905327990E-03
               9.1611356374904005E-04
              -2.1948039120702743E-03
               5.8368756572369028E-04
              -1.3364578192660237E-02
              -6.2904096368401764E-03
              -2.1082638239883509E-04
              -2.8464763259519314E-03
              -7.6248891194795896E-04
               1.6911028594244593E-02
               4.2881215388901328E-03
              -5.5924655995570928E-03
               1.7774069379869932E-03
               1.1615885023639730E-02
               2.0050756138355326E-03
              -1.2262410719517640E-02
              -1.3572789027343686E-02
               2.2095561782836648E-03
               6.7281386201819343E-03
               1.6139730000922429E-03
              -4.1168237984440404E-03
               1.1672813981356460E-03
               3.5591590475061107E-03
              -1.6741223227609785E-02
              -1.5970411268740256E-02
               3.0807037700162554E-03
               6.9639441056818198E-03
               6.7980999798041373E-03
               6.4769954303028846E-03
              -6.7668105979964651E-04
              -2.1892407529378985E-03
              -2.0250818149329743E-02
               5.1155875857151669E-03
               5.5821251500287232E-03
               6.5421416423069850E-03
              -1.6940643727855183E-03
               2.5637823031371372E-04
              -6.6449229353552734E-03
               2.0321349248846408E-03
               3.0120772137811700E-03
              -4.3737320785271873E-03
               8.3917628117390133E-03
              -2.8503589476567821E-04
              -7.3525991860302182E-04
               1.5107525704465910E-03
              -4.8557215051574067E-03
               2.2054248011159594E-04
              -1.6912443193652751E-03
               7.8520830782150153E-03
              -4.9502896405579739E-03
              -6.2709958752996562E-03
              -3.3885149158605233E-03
              -1.9145030058404337E-03
              -5.0685635264502704E-03
               1.4250217400268918E-03
              -4.2738923803129793E-04
               5.3349931058256327E-03
              -2.0341707778964674E-03
              -4.2404054624570380E-03
               1.7037811440432599E-03
              -7.6263861485460016E-03
               8.2632191822473093E-04
               9.4874493305323205E-03
               4.2774082099356623E-04
              -3.5967026422085557E-04
              -1.0163297208268325E-03
              -7.0418566423638006E-04
              -4.3655753426611373E-03
               3.3766690821075969E-03
              -4.2287461743651493E-03
               2.9593058599296234E-03
               1.6011576290395537E-02
              -2.2325345492691232E-03
               3.1314182131286935E-03
              -3.6339807958987872E-03
               4.2350487086954920E-03
               1.5127116282804265E-03
              -2.8386385699484184E-03
              -9.1756158416450607E-03
              -1.0502038455766822E-02
               5.5254088326693049E-03
               1.1434995327251896E-02
               5.6496964494557860E-03
              -5.2771482190236089E-03
              -1.2998568273517748E-03
              -4.4855174566867610E-03
              -5.6827851965837988E-03
               8.8124413993717621E-03
              -8.2755672554232790E-03
              -1.5905208869634386E-04
               1.5197933134369785E-02
               7.9554345156489475E-04
               6.4519925725870743E-03
               9.5630486729519296E-03
               1.1663996514005803E-02
               3.3063918035663403E-03
              -1.6992291529620229E-02
              -5.1461541980666117E-03
              -6.2516869333308599E-03
               7.9478357012882344E-03
              -2.3333283160365713E-04
               1.5420673039053135E-03
              -8.8854916099371569E-03
              -1.0591617492060857E-02
              -1.8891531652297420E-04
              -4.2788482498768883E-03
               5.3374413629837152E-03
               1.1790316994177229E-02
               6.7297404112834670E-03
               5.0947458285902263E-03
               9.4008345745537191E-03
               5.5971563535372427E-03
               4.2116493269605112E-03
              -1.2951957103612197E-02
              -1.9457847404450361E-03
               8.6022970894571015E-03
              -2.7100852079339913E-03
               2.7275514364557356E-03
               4.4492400837065429E-04
               5.2411647812521675E-04
               1.3177163201742543E-03
              -1.8161665590733123E-03
               4.6834660396598716E-03
              -2.9616967548979582E-04
               3.7290861242700222E-03
               3.8377912725071316E-03
              -8.5688927149702426E-03
              -2.7511904462091761E-03
              -4.4799055085613278E-03
               1.3434438700116015E-03
              -1.2872079202232635E-03
               3.3984888355303123E-03
              -5.3956504388541788E-03
               7.5876250841491709E-03
              -6.6714363900583469E-03
               1.0607670050023981E-02
              -1.1642180911947872E-03
               1.8177154205123662E-03
               4.0391778603695201E-03
               9.8363667762161504E-04
              -6.4718263745739552E-03
               3.5758187731734653E-04
              -3.1041706295039653E-03
               4.3382978607842468E-04
               2.0117531942335145E-03
               1.4914302606292376E-03
               5.4642386473616033E-03
               1.8161085676855438E-03
               1.7114184746795046E-03
              -1.0142975569628976E-02
               1.2075590089245660E-02
               3.8624128502200141E-03
              -9.6604611465636540E-03
              -5.5350973657453621E-03
               2.9783010540618063E-03
               9.7274856146088804E-03
               2.9625334086259949E-03
              -3.3020890973879174E-03
               6.9933697835842332E-03
              -3.7257225067526944E-04
              -8.5556228801658002E-03
               1.2842535477729650E-02
              -2.0710052796882789E-02
              -5.3836042139320528E-03
               6.8484053613000672E-03
               6.2847645872723731E-03
               1.1525110275284552E-03
              -1.3733919776573712E-02
               4.7849073204061709E-03
               4.6760558217193013E-03
               7.1426781664051132E-03
              -4.9922129132631719E-03
               3.6716263780140011E-03
              -6.1614824960467439E-03
              -4.9570376643087565E-03
               7.7035703355768101E-03
              -1.4401901543528955E-03
               8.0183289567910473E-03
               1.0286881501404022E-02
              -8.5065211099354457E-03
              -1.0352151985865473E-02
               7.1488741127852132E-04
               1.7059397376645408E-03
              -1.9832614097723422E-04
              -4.3234435984229663E-03
              -1.0911548467018302E-03
               1.2001544528608960E-02
               8.9292375418211726E-04
              -6.8123932367371298E-03
              -5.0775906034173342E-03
               1.4040333750032900E-03
               2.5670175804949603E-03
              -1.3374480143176998E-03
               2.7864548203967950E-03
               2.2725685505210961E-03
               5.7262038801988747E-03
               8.5732691263197790E-03
              -8.7736548427878487E-03
              -2.1966713664935936E-03
              -2.1718777404363386E-04
              -3.8458856566393708E-03
               1.6469115357152550E-03
               3.1581206805481755E-03
              -2.1533630666613593E-03
              -3.5376533688394086E-03
               1.2822020640051274E-02
              -9.7339867377782986E-04
              -1.1115976824711783E-03
               4.7832108170846295E-03
              -4.4742043212094170E-04
              -6.3274947439224364E-04
              -1.4454167989852939E-03
               1.0804946052359122E-02
               3.9706923507149905E-03
              -2.3729151151449844E-03
               9.4300053969293145E-04
              -1.9395890754294223E-03
              -3.3822780560570629E-03
              -3.1978042359516075E-03
              -4.1485845297619534E-03
              -6.5529288569123254E-03
               8.7894556468638731E-03
               4.4658526134323103E-03
               9.9633502028924781E-03
               8.1241465820197558E-04
              -7.1867415315645684E-03
         &END THERMOSTAT_ENERGY
         &RNG_INIT
Wiener process for Thermostat # 1        1 F T T   1.1663157089216083E+00         854101646.0         433596500.0        3583679380.0        3927186922.0        1214196328.0        2965693186.0             12345.0             12345.0             12345.0             12345.0             12345.0             12345.0             12345.0             12345.0             12345.0             12345.0             12345.0             12345.0
Wiener process for Thermostat # 2        1 F T T  -3.8367536873507219E-01        3181983676.0        1072288199.0        2027559557.0        2289793574.0        3641371901.0         200469290.0        3692455944.0        1366884236.0        2968912127.0         335948734.0        4161675175.0         475798818.0        3692455944.0        1366884236.0        2968912127.0         335948734.0        4161675175.0         475798818.0
Wiener process for Thermostat # 3        1 F T T   1.7365847611676793E-01         961970896.0        2670603824.0         531335200.0        2138315586.0          47331559.0        2123752303.0        1015873554.0        1310354410.0        2249465273.0         994084013.0        2912484720.0        3876682925.0        1015873554.0        1310354410.0        2249465273.0         994084013.0        2912484720.0        3876682925.0
Wiener process for Thermostat # 4        1 F T T  -5.0776630289267644E-01        3642454178.0        1645843526.0         480236128.0        1920375227.0        1190435555.0         657204031.0        2338701263.0        1119171942.0        2570676563.0         317077452.0        3194180850.0         618832124.0        2338701263.0        1119171942.0        2570676563.0         317077452.0        3194180850.0         618832124.0
Wiener process for Thermostat # 5        1 F T T   9.0703286200032984E-01        3258904254.0        2802474030.0         680459806.0        1000829155.0        3528834621.0        2924672288.0        1597262096.0        3906379055.0        3312112953.0        1016013135.0        4099474108.0         275305423.0        1597262096.0        3906379055.0        3312112953.0        1016013135.0        4099474108.0         275305423.0
Wiener process for Thermostat # 6        1 F T T   1.2039348784003103E+00        2762196732.0         332505113.0        2768407887.0        2816177226.0        1358546467.0         340486663.0          97147054.0        3131372450.0         829345164.0        3691032523.0        3006063034.0        4259826321.0          97147054.0        3131372450.0         829345164.0        3691032523.0        3006063034.0        4259826321.0
Wiener process for Thermostat # 7        1 F T T   2.0884953399964012E+00        1703954652.0        3039604496.0        1864307922.0        3049671204.0         203643340.0        1701278363.0         796079799.0        2105258207.0         955365076.0        2923159030.0        4116632677.0        3067683584.0         796079799.0        2105258207.0         955365076.0        2923159030.0        4116632677.0        3067683584.0
Wiener process for Thermostat # 8        1 F T T  -3.9254516434650827E-01          73098015.0        3474353550.0         936754538.0         172064546.0        3026512913.0         651065108.0        3281794178.0        2616230133.0        1457051261.0        2762791137.0        2480527362.0        2282316169.0        3281794178.0        2616230133.0        1457051261.0        2762791137.0        2480527362.0        2282316169.0
Wiener process for Thermostat # 9        1 F T T   8.1237648864519607E-01        2630764977.0        1487408235.0        1400816917.0        1525468101.0        2380120557.0        1381022832.0        3777646647.0        1837464056.0        4204654757.0         664239048.0        4190510072.0        2959195122.0        3777646647.0        1837464056.0        4204654757.0         664239048.0        4190510072.0        2959195122.0
Wiener process for Thermostat # 10       1 F T T  -3.9936864135280536E-01        3566586920.0        3081481257.0        2071321470.0        3043168991.0        1870535848.0         242827473.0        4215590817.0        3862461878.0        1087200967.0        1544910132.0         936383720.0        1611370123.0        4215590817.0        3862461878.0        1087200967.0        1544910132.0         936383720.0        1611370123.0
Wiener process for Thermostat # 11       1 F T T   7.8544551590549772E-01        2186453830.0          77303933.0        3796601671.0         121149546.0         415967778.0         391109332.0        1683636369.0         362165168.0         814316280.0         869382050.0         980203903.0        2062101717.0        1683636369.0         362165168.0         814316280.0         869382050.0         980203903.0        2062101717.0
Wiener process for Thermostat # 12       1 F T T  -2.4172598378159060E-01        2927606861.0        1100247592.0        2601904210.0        4037587080.0        3704798916.0        3065905165.0         272317999.0         166758548.0         310112982.0         201045826.0        1680231254.0         118290799.0         272317999.0         166758548.0         310112982.0         201045826.0        1680231254.0         118290799.0
Wiener process for Thermostat # 13       1 F T T   6.0351088412939669E-01        4153108792.0          28219415.0        2833695979.0          63852001.0        1734438217.0        2875321232.0        2245755202.0        1652682525.0        2865544364.0         721509566.0         209733568.0         592362218.0        2245755202.0        1652682525.0        2865544364.0         721509566.0         209733568.0         592362218.0