 # Version information for this restart file 
 # current date 2022-11-29 19:42:28.630
 # current working dir /home/yx2892/comp-lab-class/Week12/Runs/Proton
 # Program compiled at                              Sat Dec 12 18:27:15 EST 2020
 # Program compiled on                                         cs001.nyu.cluster
 # Program compiled for                                                nyu-intel
 # Source code revision number                                       git:8c64c6e
 &GLOBAL
   PRINT_LEVEL  LOW
   PROJECT_NAME proton_aimd_1ns_every0.5fs
   RUN_TYPE  MD
   WALLTIME 21600
 &END GLOBAL
 &MOTION
   &GEO_OPT
     OPTIMIZER  BFGS
     MAX_ITER  100
     MAX_DR     3.0000000000000001E-03
     &BFGS
     &END BFGS
   &END GEO_OPT
   &MD
     ENSEMBLE  NVT
     STEPS  2000000
     TIMESTEP     4.9999999999999994E-01
     STEP_START_VAL  1583
     TIME_START_VAL     7.9150000000000944E+02
     ECONS_START_VAL    -1.1027288227596132E+03
     TEMPERATURE     3.0000000000000000E+02
     &THERMOSTAT
       TYPE  GLE
       REGION  MASSIVE
       &GLE
         NDIM  5
         A_SCALE     1.0000000000000000E+00
         A_LIST     1.8595758612559999E+02    2.7263853498399998E-01    1.1526100454610001E+01   -3.6414578262600003E+01 \
             2.3173375816020001E+02
         A_LIST    -2.7809524712060002E-01    8.5951591808710006E-05    7.2189048017650004E-01   -1.9844539343859999E-01 \
             4.2409257583420001E-01
         A_LIST    -1.4825808131210000E+01   -7.2189048017650004E-01    1.3590902121280000E+00    5.1498896280349999E+00 \
            -9.9949268450990001E+00
         A_LIST    -1.0372189126880000E+01    1.9844539343859999E-01   -5.1498896280349999E+00    2.6661910891169999E+01 \
             1.1507715495310000E+01
         A_LIST     2.1801346360420001E+02   -4.2409257583420001E-01    9.9949268450990001E+00   -1.1507715495310000E+01 \
             3.0958394565589998E+02
         &THERMOSTAT_ENERGY
               3.1117890572887417E-03
              -1.3489051826597852E-03
              -1.7925315708129420E-03
               3.0945811147172222E-03
              -1.8697682379536180E-02
               1.0638384395392868E-03
              -5.6037380164690757E-03
              -1.6275763695410119E-03
               2.5250630163195578E-03
               2.7878289526226483E-03
               7.5609974835198195E-03
              -4.1786575785625023E-03
              -2.0804070579160403E-03
              -7.9512782444581560E-03
               7.7453858448749769E-03
              -5.1052073791801947E-03
               5.5279502372953789E-03
               1.9843445706630900E-03
               3.3525237339077371E-03
               3.8823160436497100E-05
               4.5500160098952613E-03
              -1.4234511320828523E-03
              -1.6596177580114016E-03
              -5.9461518987761960E-03
              -2.7517200643844384E-03
              -8.4408118646415054E-03
               1.4318651776031848E-03
               4.3955928846054772E-04
              -1.1463904753894337E-03
               4.8610837307997475E-03
              -3.2787334788857204E-03
              -6.1171894523468643E-03
               1.1692801484608309E-02
               1.2980224163371770E-03
              -1.0699583483760055E-02
               1.3545371493201563E-02
              -1.0637878648512072E-03
              -6.6930291212583138E-03
               4.0361077939510461E-03
              -1.4995169474137429E-04
               4.4635379847331527E-03
              -2.1424489252017652E-04
               7.9752822896322403E-03
               4.0187785304742997E-03
              -6.9610774593719879E-04
               5.8885237292368355E-03
              -5.0283691040154954E-03
               3.1708314482121187E-03
               1.7532220769608338E-03
               6.3410429121340513E-03
               1.7657744923765754E-03
               6.9236234130442918E-03
              -1.1153505830923805E-02
              -2.4538383347850828E-03
              -5.5250024291516866E-03
               2.6259944191503863E-03
               5.7946512440472961E-04
               1.1883895720681756E-03
               4.7937497377180316E-03
               8.4591808221154394E-05
              -4.9765221892139255E-03
              -4.2781120236984873E-03
               1.6693320868679369E-02
               3.0028579619760729E-03
               1.7678020355763517E-03
               7.3671400960195806E-03
              -7.9990029497732683E-04
              -5.9054200305175674E-03
               8.9111511446380957E-03
               7.5378048806350089E-03
               4.1586553481855843E-03
               2.3761762185762821E-02
              -4.1233396091641791E-04
              -1.0172309124252625E-04
               1.4015301150918028E-04
              -1.2539873419222398E-02
               3.8093026476543708E-03
               2.8693707667116321E-03
               4.6657376052840968E-03
               1.6061199128789094E-03
              -2.3539258374279601E-03
              -5.7282360543711346E-03
               5.1431811809754080E-04
               7.2490608785918736E-04
               5.8371065348592505E-03
               4.3873323625743810E-03
              -1.8119413433688590E-03
               2.9137872631601384E-03
               5.8091071297608887E-03
              -1.0074451659494516E-02
               8.5785790041793667E-04
              -6.3279673527937789E-03
               2.2041887182058296E-03
              -4.7643984857324139E-03
              -5.1640182861465381E-03
               5.8091499149422691E-03
               8.6741083434500460E-03
              -2.8600693609471937E-04
               1.0007649216743518E-02
               8.1935015693259498E-03
              -8.0109232437225834E-03
              -3.1629059513044837E-03
              -1.0796402044931026E-03
               2.5054666979139168E-03
              -1.0534587049504690E-02
               6.1744721032906862E-03
               7.4527343970569124E-03
              -4.7020021658842441E-03
               8.6942476487023926E-03
              -1.6789473995651334E-03
               2.0586421461040361E-04
              -3.8223541238433896E-03
               8.1005676854958766E-03
               7.0761667665062561E-04
               4.7069769520176920E-03
               1.2560054334446536E-04
              -8.1256276307885601E-03
               6.8838396100899969E-04
              -3.7039660406650563E-04
               1.5014952905787989E-04
              -5.2601428281178256E-04
               1.9849790894240506E-03
               1.5539595930880218E-03
              -2.8837830529718452E-03
               3.0255150146986322E-04
              -7.2280363532085399E-03
               7.3110247780884359E-03
              -1.0531655499022843E-03
               4.0700292143330393E-03
               7.0392884258066001E-04
              -7.3838464652634141E-03
               6.4751621963275059E-03
              -2.6857826987505230E-03
              -5.4606659287294752E-03
               3.9850488188386867E-03
               2.2596424728703653E-03
               1.5976817776787602E-03
              -4.8145846946887809E-04
              -1.7886659105608004E-03
              -7.6030061995639078E-03
              -6.8805808040750304E-03
               2.0087617334238951E-02
               1.4336175187192029E-02
              -9.8480533574138163E-03
               6.6749861708831262E-03
              -3.5371486971135153E-05
               9.0367489704406678E-03
               7.0060561929485366E-03
              -2.8574436485318222E-04
              -8.7541337920395441E-03
              -2.0384690634529967E-02
               6.3150459789242108E-03
               6.1962651654400474E-03
               1.8385163091665792E-03
               7.4672639947724337E-03
               4.6872074006903729E-03
              -1.3113682376936857E-03
              -4.5850831816340075E-03
               3.6570408837413274E-03
               5.1464774448860048E-03
              -3.8787187823104098E-04
              -7.5940156055425093E-03
              -1.9013265817374844E-03
               2.2628005488656584E-03
               6.8363804698547146E-03
               2.1675937537036914E-02
              -1.3149769205585021E-03
              -1.8468889697856147E-02
              -2.9729139298536201E-04
               1.3686922337637418E-03
              -4.9959953177113894E-04
               3.6417650879449872E-03
               1.8857004194766519E-03
              -8.3072262413285346E-04
               2.0489672160114797E-02
               6.2176325010605445E-03
               3.4790470836599766E-02
               1.4638237397445121E-03
               4.8966998373072184E-03
               1.2644563276217191E-04
               3.8320969596174273E-03
              -1.9462370992127442E-02
               2.9539651405327744E-02
              -6.0346905317818318E-03
              -4.8039218507238841E-04
               4.4116780632659752E-04
               1.5172683843847276E-02
              -4.3825805755321667E-03
              -4.4240152203523890E-03
               2.2309197199376352E-03
              -7.3831044732622321E-03
               6.4818530567749347E-03
               5.9232515394159520E-03
               5.1385321841949713E-03
               2.1987276738804989E-03
               8.4954016240929731E-03
              -1.3558891210180935E-02
               2.9630975460593039E-04
              -2.4331441209511214E-03
              -1.9354021680723869E-03
               6.8325846130122651E-03
               1.0705572946215455E-03
               1.4925590877977084E-03
               5.7984873123100075E-03
              -8.4951796480677386E-03
              -7.4480800022167287E-03
               4.1263353849915318E-03
              -1.3887481724769255E-03
              -3.6737569774889646E-03
               1.7340801531612604E-02
              -5.5205329318068061E-03
              -7.3666314849706147E-04
              -6.3275989981647891E-04
               9.2362868826198821E-04
              -5.9784021467412874E-03
               7.9647474377427547E-03
              -1.1824615871318476E-05
               3.2865769454843211E-04
              -3.2588557825755640E-03
               3.3629059479660509E-03
              -4.0923785811591812E-04
              -2.7682507845805983E-03
              -1.3336510165577572E-02
               2.5139962719574376E-03
              -5.4841323330172319E-04
              -7.8804681946077898E-03
              -2.2301694111802554E-03
               5.5216614208069845E-03
              -2.6150119638953398E-03
               1.2426449402031638E-03
              -1.5514413467196389E-03
               1.3147864339147085E-03
               1.0477476141231727E-02
              -4.4530632274771605E-03
              -1.1420818482265752E-03
              -4.1692112561905574E-03
              -9.2726058221025386E-03
               2.7192153273604578E-03
              -1.0368267793793031E-03
               5.1766086090562064E-04
               2.7891437130261754E-03
               9.2205254122474621E-03
               2.2977259863012287E-03
              -4.8868114720805548E-03
               1.5240338414986422E-03
              -3.5349364588418328E-03
              -1.0231193609314551E-03
               1.6674205465059863E-03
              -1.4869910416995778E-03
              -1.5822227561469756E-03
               5.0535581408295846E-03
               7.3524918932437258E-04
              -7.4441556394691730E-03
              -7.4283216478505830E-03
               5.2509026111870766E-03
              -3.9467886441073323E-03
              -4.7960158284154055E-03
               4.3646929994483061E-03
              -8.1120127016388183E-03
              -1.5649273360243898E-03
               1.2189724187492196E-02
               6.1276911700746794E-03
               4.8796248658076026E-03
              -4.5481515256866057E-04
               3.1797457937419323E-03
              -7.3358087896757251E-04
               1.6691160973175798E-04
              -1.6607315653910269E-03
              -6.0246686931724955E-04
               5.1557152349891236E-03
               1.5316346726701898E-03
              -4.8296669414072185E-03
              -1.2036609515790283E-03
               4.3413035534375912E-03
               1.1628164084859012E-03
              -8.4084811946739241E-04
              -1.4591362802231911E-02
               1.2684029974328225E-02
               4.9481168632394485E-03
              -1.1611705477262013E-02
               2.8506489936165579E-03
              -1.2241502431823560E-03
               3.1484577376449754E-03
               1.1605546369237107E-02
              -7.2406830266204172E-04
               2.1040433271597471E-03
              -4.9930351558555115E-03
              -5.8300110051376884E-03
              -1.6412201166096683E-02
              -2.3992564717099617E-03
               2.1002322045095716E-02
               3.4514652929961039E-04
              -4.7500548109859937E-03
              -4.6922584710504733E-03
               3.8373162358604461E-03
               7.1802960916616679E-03
              -2.2171143180002434E-03
               1.4014822979480212E-02
               4.7560484379200159E-03
              -1.2919876094592211E-02
               5.6094421581153490E-03
              -2.0966890117406745E-03
               3.7855901356397062E-03
               1.4639495254497450E-02
               3.2331374565085507E-03
              -9.4769915748939872E-03
              -6.1138685385629500E-03
              -8.5728393170149964E-03
               1.3479196560533412E-02
               8.9637142932268137E-03
              -1.0055933842578340E-03
              -2.5890010115500674E-03
               4.2065637534023804E-03
              -4.5735879184308735E-03
               3.5161510212910006E-03
              -2.7157038899529467E-03
              -4.3952532297646309E-03
               2.0575362143573032E-03
              -1.2314435243338516E-02
              -5.0779461470359813E-03
               2.7502522591309909E-03
               5.5026762374118608E-03
               2.7258761100715781E-03
              -2.3419024902857095E-03
              -9.4695861919697581E-03
               1.4733285914139159E-02
               6.3857515730739748E-03
              -9.0068499725903567E-04
               1.2041168661177640E-04
               1.2241204319208829E-03
              -8.7679060580611954E-03
               4.3686943063428975E-03
               4.2694571696662385E-03
              -3.0358876114469479E-03
               4.9838413060706828E-04
              -2.3350281297909916E-03
               1.2974231916746087E-04
               2.9510671542403943E-03
               3.5396022524235017E-04
               5.1573705348770260E-03
              -1.0423106709807031E-02
              -8.7044536661432942E-03
               1.3418985156423747E-03
               8.0591325923424668E-03
               8.2676493235633881E-03
               3.4844716949165660E-03
               3.1737737720809191E-03
              -1.0439373538734944E-02
               8.3053167147791145E-03
               2.2783943333511405E-03
              -5.4025548761074552E-03
               1.2009961813506135E-02
              -1.3194009060623541E-02
               1.2543459810551161E-03
               3.1532113481164847E-04
              -1.9280255029861136E-03
               1.3983752033260872E-03
              -1.3519351018178230E-02
              -6.3067676475489619E-03
              -1.1582788071332574E-04
              -3.1381898901656400E-03
              -3.1114702705892119E-04
               1.6664521844892557E-02
               4.2664152987773284E-03
              -4.7161357823355347E-03
               1.7513417990709975E-03
               1.1931843225075253E-02
               2.0077810835585075E-03
              -1.2243939363592157E-02
              -1.3613229812423517E-02
               2.2546654175161730E-03
               6.6977442107245518E-03
               1.7373364354268477E-03
              -4.1225802904366121E-03
               1.5497082960415378E-03
               3.5410484437141143E-03
              -1.6871152818152938E-02
              -1.5759540752998364E-02
               3.3978756687392340E-03
               6.9748303827564919E-03
               6.7433805215623170E-03
               6.7031772746240859E-03
              -3.5483301516744600E-04
              -2.2070772000475402E-03
              -2.0211101783348253E-02
               4.4530353941702487E-03
               5.5430289855016805E-03
               6.9940774308800864E-03
              -1.5195859140651484E-03
               3.1643376690492755E-04
              -6.6827752679304584E-03
               1.8974645557122316E-03
               3.2496794750695953E-03
              -3.8403088362108399E-03
               8.0387102163308553E-03
              -3.2218771531559846E-04
              -6.8459427278729922E-04
               1.5042374181950904E-03
              -4.9747891209253126E-03
               2.2114486772418918E-04
              -1.9734180809672982E-03
               7.8656905593970684E-03
              -4.8865936391016352E-03
              -5.9997636511501026E-03
              -3.3306277312363272E-03
              -1.9673917798958291E-03
              -4.9229587840197795E-03
               1.4568413169631694E-03
              -9.8491903316765689E-04
               5.7775590007045022E-03
              -2.0357342494774465E-03
              -4.6829847545306492E-03
               2.0933522046813345E-03
              -7.5777348136957566E-03
               8.5035463070720239E-04
               9.4760166445380673E-03
               9.5789604910954886E-04
              -4.5282732581305074E-04
              -1.6469920046905905E-03
              -6.7292707903955792E-04
              -4.2738761513425845E-03
               3.3726497396510775E-03
              -4.3647089843112715E-03
               3.0472430956493195E-03
               1.6211910596981901E-02
              -1.1465676368390969E-03
               3.3506689923427932E-03
              -3.6793364852200101E-03
               4.3735372187596443E-03
               1.3774576364480712E-03
              -3.0160262453626167E-03
              -7.1538967602663532E-03
              -1.0357363692512309E-02
               5.6633255308098773E-03
               1.1028663965773997E-02
               5.2734835565297960E-03
              -5.0972959724216163E-03
              -1.1718155647569000E-03
              -4.1952106239935370E-03
              -5.8615192563813640E-03
               9.1127448314444852E-03
              -7.8269920546072767E-03
              -4.0871194341565107E-04
               1.4855399050454427E-02
               7.4638099379609755E-04
               6.2454445461239110E-03
               9.1112531965719581E-03
               1.1229294899264969E-02
               3.3007734389886552E-03
              -1.6758556833489518E-02
              -4.7037274296941782E-03
              -6.3141880595190807E-03
               6.4809639408711320E-03
              -2.7410146964063618E-04
               1.4046720036543080E-03
              -8.6390914994771435E-03
              -1.0736070304787319E-02
              -1.2269995347071517E-03
              -4.0363494957646410E-03
               5.2039766289183470E-03
               1.1773817327452240E-02
               6.7677874895089767E-03
               4.5093310414731132E-03
               9.6840762875453849E-03
               5.6950861668902441E-03
               4.3128986791037558E-03
              -1.3103368759684169E-02
              -1.9954988413696277E-03
               8.6038859640784598E-03
              -2.7481441292816341E-03
               2.6927686371092485E-03
               1.0419163041135433E-03
               4.2486422564850276E-04
               9.9381417372227873E-04
              -2.0074518709993681E-03
               4.7414063506060530E-03
              -7.5717882226037725E-04
               3.6985169284798284E-03
               3.5451456768592128E-03
              -8.6236016257746177E-03
              -2.2824611163066635E-03
              -4.4126347330608624E-03
               1.4998755082936731E-03
              -1.3196608661724964E-03
               3.4230402816544298E-03
              -5.6265952801040110E-03
               7.6812062942241809E-03
              -6.6459824495357601E-03
               1.0541541539040357E-02
              -1.5554676428527704E-03
               1.0567965228139909E-03
               4.1057545090716664E-03
               1.8274926976110510E-03
              -6.5361028027517924E-03
              -1.8540731634007768E-05
              -3.3246191322675919E-03
               1.4985443798897060E-04
               2.0787644775721501E-03
               1.4773433819621820E-03
               5.3220758570044812E-03
               1.9690569819573352E-03
               1.5750044386416496E-03
              -1.0234598353733809E-02
               1.2027102921805012E-02
               3.8502328273995320E-03
              -8.9232666330800597E-03
              -5.1267714461822765E-03
               3.0561466855944025E-03
               9.5260644882164767E-03
               2.7490386124618430E-03
              -3.1808325858659389E-03
               6.9964886818031456E-03
              -3.4204484142590921E-04
              -8.5018820349344014E-03
               1.3346440979533011E-02
              -2.0940931639300438E-02
              -5.3564013747158428E-03
               6.8076703216643514E-03
               6.2317167195925392E-03
               7.7103392169616857E-04
              -1.3308783384293948E-02
               5.2862018301072042E-03
               4.6281689303497974E-03
               7.2000166886452572E-03
              -5.3442614107404012E-03
               3.7348020184025874E-03
              -6.1127110193018698E-03
              -3.9678144959863449E-03
               7.5181229488477845E-03
              -1.7603169368365593E-03
               8.7299612808515569E-03
               1.0319361220005948E-02
              -8.3477947739627328E-03
              -1.0471736044322938E-02
              -1.3404404270221473E-03
               1.8585822748119186E-03
              -5.6663605309875136E-05
              -4.6630298680637979E-03
              -9.1684721085033083E-04
               1.2026080223344513E-02
               9.7209631695682698E-04
              -6.9762264447522622E-03
              -5.0839534246778497E-03
               1.5457567149580855E-03
               2.4311437182824363E-03
              -1.1712438888626013E-03
               2.8245716690655396E-03
               2.2314436906439544E-03
               5.6284480051231019E-03
               9.1585332149664335E-03
              -8.9177432563955356E-03
              -2.1706887559216534E-03
               1.5179304127649606E-04
              -3.8431875599287701E-03
               1.6791762259175138E-03
               3.2259955050619564E-03
              -2.2214750826958967E-03
              -3.1178937714600769E-03
               1.2679967069474586E-02
              -1.0844566746853266E-03
              -1.5961324154029912E-04
               4.5756372599511461E-03
              -9.1537069608523067E-04
              -7.6580678619579906E-04
              -1.2713306842252203E-03
               1.0778452519078321E-02
               3.9458516230975816E-03
              -2.0096158882344194E-03
               1.1163736435588017E-03
              -1.8793162997645706E-03
              -4.6385808694030597E-03
              -3.2177951948679979E-03
              -4.3511939866104112E-03
              -6.5136070075516054E-03
               8.5263947077022090E-03
               4.5623806187401958E-03
               9.9451747519531241E-03
               9.6340889461102005E-04
              -7.4079257742045365E-03
         &END THERMOSTAT_ENERGY
         &RNG_INIT
Wiener process for Thermostat # 1        1 F T T  -1.1342013360142262E+00         897181433.0        1922336926.0        2787586958.0        3211026944.0        1313492447.0         848108816.0             12345.0             12345.0             12345.0             12345.0             12345.0             12345.0             12345.0             12345.0             12345.0             12345.0             12345.0             12345.0
Wiener process for Thermostat # 2        1 F T T   5.4596910711092128E-01        1603883273.0        4030005780.0         997345168.0        1208791313.0        4186654202.0         583202297.0        3692455944.0        1366884236.0        2968912127.0         335948734.0        4161675175.0         475798818.0        3692455944.0        1366884236.0        2968912127.0         335948734.0        4161675175.0         475798818.0
Wiener process for Thermostat # 3        1 F T T  -5.5655326971599328E-01         508716483.0        1585954233.0        2905793424.0        3753606813.0         849152535.0         788431215.0        1015873554.0        1310354410.0        2249465273.0         994084013.0        2912484720.0        3876682925.0        1015873554.0        1310354410.0        2249465273.0         994084013.0        2912484720.0        3876682925.0
Wiener process for Thermostat # 4        1 F T T  -5.7315765817927922E-01        3634155783.0         878625373.0        1180441056.0        2570625367.0        3582752780.0        2161579375.0        2338701263.0        1119171942.0        2570676563.0         317077452.0        3194180850.0         618832124.0        2338701263.0        1119171942.0        2570676563.0         317077452.0        3194180850.0         618832124.0
Wiener process for Thermostat # 5        1 F T T   9.5008320928224543E-01        2463934403.0        2348130753.0        2353432180.0         914674587.0        3709258034.0        3790750964.0        1597262096.0        3906379055.0        3312112953.0        1016013135.0        4099474108.0         275305423.0        1597262096.0        3906379055.0        3312112953.0        1016013135.0        4099474108.0         275305423.0
Wiener process for Thermostat # 6        1 F T T   6.2057838783795138E-01        1442222898.0        2893102442.0        1430566651.0        2209404537.0         132064983.0        3520421847.0          97147054.0        3131372450.0         829345164.0        3691032523.0        3006063034.0        4259826321.0          97147054.0        3131372450.0         829345164.0        3691032523.0        3006063034.0        4259826321.0
Wiener process for Thermostat # 7        1 F T T   1.2243463146888354E+00        1382393628.0         967679091.0        2412724534.0         475781399.0        1742228002.0        2514021081.0         796079799.0        2105258207.0         955365076.0        2923159030.0        4116632677.0        3067683584.0         796079799.0        2105258207.0         955365076.0        2923159030.0        4116632677.0        3067683584.0
Wiener process for Thermostat # 8        1 F T T   9.6509167679236174E-01         885554970.0        2435513705.0        2439883387.0        3618962269.0        3465922058.0         990113204.0        3281794178.0        2616230133.0        1457051261.0        2762791137.0        2480527362.0        2282316169.0        3281794178.0        2616230133.0        1457051261.0        2762791137.0        2480527362.0        2282316169.0
Wiener process for Thermostat # 9        1 F T T  -1.7015204837650784E+00        1719126816.0         497428239.0        2301974944.0        2782580877.0        3311113825.0        3224342691.0        3777646647.0        1837464056.0        4204654757.0         664239048.0        4190510072.0        2959195122.0        3777646647.0        1837464056.0        4204654757.0         664239048.0        4190510072.0        2959195122.0
Wiener process for Thermostat # 10       1 F T T  -2.7552842272718747E-01         176461202.0        3809711937.0        1914118823.0        3503237934.0        2258729965.0        3942761867.0        4215590817.0        3862461878.0        1087200967.0        1544910132.0         936383720.0        1611370123.0        4215590817.0        3862461878.0        1087200967.0        1544910132.0         936383720.0        1611370123.0
Wiener process for Thermostat # 11       1 F T T  -3.3684031696005232E+00        2881164672.0        3341967628.0          52045961.0        3952544858.0        1320234008.0        3259251560.0        1683636369.0         362165168.0         814316280.0         869382050.0         980203903.0        2062101717.0        1683636369.0         362165168.0         814316280.0         869382050.0         980203903.0        2062101717.0
Wiener process for Thermostat # 12       1 F T T   4.8251092365515696E-01        4257892384.0        3027252657.0        3875754916.0        3653282000.0        3810072011.0        3071509249.0         272317999.0         166758548.0         310112982.0         201045826.0        1680231254.0         118290799.0         272317999.0         166758548.0         310112982.0         201045826.0        1680231254.0         118290799.0
Wiener process for Thermostat # 13       1 F T T  -7.9096445295873419E-01        2396815743.0        2741437935.0         245408886.0          33031700.0        2304762977.0        1268183602.0        2245755202.0        1652682525.0        2865544364.0         721509566.0         209733568.0         592362218.0        2245755202.0        1652682525.0        2865544364.0         721509566.0         209733568.0         592362218.0