 # Version information for this restart file 
 # current date 2022-11-29 19:42:44.642
 # current working dir /home/yx2892/comp-lab-class/Week12/Runs/Proton
 # Program compiled at                              Sat Dec 12 18:27:15 EST 2020
 # Program compiled on                                         cs001.nyu.cluster
 # Program compiled for                                                nyu-intel
 # Source code revision number                                       git:8c64c6e
 &GLOBAL
   PRINT_LEVEL  LOW
   PROJECT_NAME proton_aimd_1ns_every0.5fs
   RUN_TYPE  MD
   WALLTIME 21600
 &END GLOBAL
 &MOTION
   &GEO_OPT
     OPTIMIZER  BFGS
     MAX_ITER  100
     MAX_DR     3.0000000000000001E-03
     &BFGS
     &END BFGS
   &END GEO_OPT
   &MD
     ENSEMBLE  NVT
     STEPS  2000000
     TIMESTEP     4.9999999999999994E-01
     STEP_START_VAL  1585
     TIME_START_VAL     7.9250000000000944E+02
     ECONS_START_VAL    -1.1027288227596132E+03
     TEMPERATURE     3.0000000000000000E+02
     &THERMOSTAT
       TYPE  GLE
       REGION  MASSIVE
       &GLE
         NDIM  5
         A_SCALE     1.0000000000000000E+00
         A_LIST     1.8595758612559999E+02    2.7263853498399998E-01    1.1526100454610001E+01   -3.6414578262600003E+01 \
             2.3173375816020001E+02
         A_LIST    -2.7809524712060002E-01    8.5951591808710006E-05    7.2189048017650004E-01   -1.9844539343859999E-01 \
             4.2409257583420001E-01
         A_LIST    -1.4825808131210000E+01   -7.2189048017650004E-01    1.3590902121280000E+00    5.1498896280349999E+00 \
            -9.9949268450990001E+00
         A_LIST    -1.0372189126880000E+01    1.9844539343859999E-01   -5.1498896280349999E+00    2.6661910891169999E+01 \
             1.1507715495310000E+01
         A_LIST     2.1801346360420001E+02   -4.2409257583420001E-01    9.9949268450990001E+00   -1.1507715495310000E+01 \
             3.0958394565589998E+02
         &THERMOSTAT_ENERGY
               3.0194049150884263E-03
              -1.3585799103575415E-03
              -1.8277003272090279E-03
               3.2245677989474440E-03
              -1.8565412959456424E-02
               1.2885990298992832E-03
              -5.4577433032134658E-03
              -1.6921609114767357E-03
               2.8502666814824952E-03
               3.2098623439648175E-03
               7.1824587514015435E-03
              -3.9098871033003873E-03
              -1.5100098414269284E-03
              -7.7871723132287279E-03
               7.9069399698524240E-03
              -5.8425114034232175E-03
               4.8884071196679049E-03
               1.9708015485256298E-03
               3.2485408389001120E-03
               4.6945574787476030E-04
               4.2426111761083053E-03
              -9.7743754098335300E-04
              -1.7508775088695306E-03
              -6.3804929774710804E-03
              -4.2930941741730483E-03
              -8.0810197725190800E-03
               1.4234370514940560E-03
               5.0699846987360990E-04
               2.6877049658758853E-04
               4.3883721957439295E-03
              -3.3845076065656897E-03
              -6.2029882343437254E-03
               1.2185314005794035E-02
               1.3118628026446578E-03
              -1.0672890553807966E-02
               1.3218317278441423E-02
              -9.2570187029236337E-04
              -5.3554240541611288E-03
               3.0366507649860789E-03
              -3.2054242979897424E-04
               4.2798349352460748E-03
              -2.8140588936242217E-04
               7.9516249488611607E-03
               3.0203203295461238E-03
              -6.8494648005481998E-04
               6.6668333295162472E-03
              -4.8599816505368451E-03
               2.5285183788747931E-03
               1.7967985843029663E-03
               6.3624487251719196E-03
               1.5549235849968697E-03
               6.7861792093499608E-03
              -1.1790454892265857E-02
              -2.5037321567241097E-03
              -5.3981774147844452E-03
               2.6609688576756940E-03
               3.3389476800851881E-04
               1.7961962759733821E-03
               5.2427669897030203E-03
               1.9613052807409236E-04
              -5.5407504996376842E-03
              -4.2352138960309932E-03
               1.6506704801968603E-02
               2.7464865727611686E-03
               1.9553446619554266E-03
               7.1879696435695499E-03
              -7.8340921656133082E-04
              -5.8339926869152396E-03
               8.9034106325654675E-03
               7.6247189729927063E-03
               3.8083222800294842E-03
               2.3562103134858108E-02
              -1.7510887019484068E-04
               1.2616631492433909E-05
               4.5421693167094494E-04
              -1.2626300671907325E-02
               3.7274647398295776E-03
               3.3243898688934828E-03
               4.6364702192534506E-03
               1.7045830554824595E-03
              -2.5459224905621293E-04
              -5.6359824216864508E-03
               1.3795271756219744E-03
               7.7097041081608671E-04
               5.8397925495502160E-03
               4.3683077682531426E-03
              -1.7624082115325515E-03
               3.0442072539969703E-03
               5.6529567355243435E-03
              -9.5024408519496038E-03
               4.9182520667108833E-04
              -6.3535637407542882E-03
               2.3216660008629920E-03
              -4.7210678408064364E-03
              -5.2482803740676329E-03
               6.6961837018706602E-03
               8.7037647820373577E-03
              -3.9652193168206602E-04
               8.6890739045301455E-03
               8.2600648077019202E-03
              -7.6107820319544347E-03
              -3.3994242311239831E-03
              -2.4316736814560046E-03
               3.6796387011911588E-03
              -1.1332804510580621E-02
               6.6624010260876261E-03
               7.3944257010752218E-03
              -4.2783063640790368E-03
               8.5628560870382679E-03
              -1.7697902303335368E-03
               1.3917153292330743E-04
              -3.8385337207110107E-03
               8.1059888941058672E-03
               1.1808591642278161E-03
               4.0748601538720553E-03
               8.9009702919012283E-04
              -7.9444305931779639E-03
               2.5328275580001145E-03
              -3.6854824350924977E-04
               1.4092342213754814E-04
              -6.5958283691326550E-04
               1.6470301396934416E-03
               1.5461877513362190E-03
              -3.2552414776591816E-03
               7.9772809981201829E-04
              -7.2161296520972581E-03
               7.1622646953840652E-03
              -5.9939164520977310E-04
               3.1334706310287034E-03
               1.0048679713755260E-03
              -5.2727279235572147E-03
               6.0907344727985915E-03
              -2.6307876399040554E-03
              -6.0828714049877700E-03
               4.2356606659934085E-03
               2.4083584160367482E-03
               9.6522370966663261E-04
              -1.0810618694836723E-03
              -1.3117827493282505E-03
              -8.1145057188437026E-03
              -7.2977527383091987E-03
               2.0178442475567961E-02
               1.4142844628016470E-02
              -9.9942069802805324E-03
               7.0828271932762716E-03
               6.2987199380207790E-05
               8.8518654400979203E-03
               8.4408714874865589E-03
              -2.8594368594842917E-04
              -8.9555595560547162E-03
              -2.0785752147602594E-02
               8.4154152143743888E-03
               5.3648267531876499E-03
               1.8134085331970842E-03
               7.0324922405107116E-03
               4.4944737419580615E-03
              -2.1370215344940035E-03
              -4.3110676921804987E-03
               3.2750370524060770E-03
               5.0923163901009077E-03
              -3.2606082243060428E-04
              -7.7904168367340402E-03
              -1.9628264068993328E-03
               1.3224479530269083E-03
               6.8499404527960417E-03
               2.3340205114979206E-02
              -1.3497047101320098E-03
              -1.8663843589897318E-02
               2.2347558015236094E-04
               1.1930651045765671E-03
              -5.1005609562518805E-04
               3.3905990240376475E-03
               1.1415966576155752E-03
              -1.9364000241380757E-04
               2.0588687900272826E-02
               7.5413139754730895E-03
               3.4301618320536985E-02
               1.1742665460547199E-03
               4.6495307437781587E-03
               1.3191495672040240E-04
               3.6768435498793208E-03
              -1.9162654271701284E-02
               2.9236739447734143E-02
              -5.7919565579700261E-03
              -5.5241180101293626E-04
               6.2990756757829662E-04
               1.5361152183115120E-02
              -4.4695794371656982E-03
              -4.7174368835338765E-03
               1.9608693257051482E-03
              -7.2799149116095328E-03
               6.4631443714139166E-03
               5.7108027995004945E-03
               5.0309894942945702E-03
               1.8975371921449262E-03
               8.4478685060772295E-03
              -1.3692953080077357E-02
               9.8540209269792033E-04
              -2.2256006425734397E-03
              -1.8028893034558668E-03
               6.6646839364568741E-03
               1.0593781397144415E-03
               5.6849468834989304E-04
               5.2398838154576943E-03
              -8.2939004831260738E-03
              -7.1307932250543569E-03
               4.1367481045690366E-03
              -1.7257654420469691E-03
              -3.7115836115158359E-03
               1.7364646679195492E-02
              -5.3849320397041413E-03
              -2.7604720559828641E-04
              -7.3871708056716303E-04
               8.8669904545060987E-04
              -7.4863413034069373E-03
               6.9964841317621184E-03
               3.5450038012569920E-06
               2.9637717714320246E-04
              -3.0779046663396933E-03
               3.7806016828798401E-03
              -4.0546163687280832E-04
              -3.3756356366886880E-03
              -1.3683684797593193E-02
               2.5439616763588322E-03
              -1.2349561867477455E-04
              -7.7203152575782237E-03
              -2.4374064375567574E-03
               5.3768014881259499E-03
              -2.3237509333675402E-03
               1.2309188765642306E-03
              -1.2324145046706269E-03
               1.8834295164369208E-03
               1.0872185473120879E-02
              -4.7217503822986027E-03
              -1.4335397660174161E-03
              -4.1495165514906151E-03
              -9.3599112640937853E-03
               2.7977583798126232E-03
              -7.4877824353233142E-04
               5.2217554480529695E-04
               3.0695938667567083E-03
               9.1964079928886673E-03
               2.8428204716230178E-03
              -5.4541390165173424E-03
               1.7647072364396440E-03
              -4.0262912435358594E-03
              -1.1018433310478061E-03
               1.1460338979460407E-03
              -2.1599208228861829E-03
              -2.1865225387287554E-03
               4.5757503958623845E-03
               4.9610832404963379E-04
              -7.4232801587383818E-03
              -6.0679432829277517E-03
               5.2360532590662841E-03
              -5.0057420850587019E-03
              -4.7109797213235318E-03
               4.2465874912529849E-03
              -7.9027775632580285E-03
              -1.4342087779077206E-03
               1.2323168050783486E-02
               5.7144154490758560E-03
               4.6521256900968816E-03
              -6.6360602286826681E-04
               3.7860576278725966E-03
              -9.0044237900484346E-04
              -1.1797870879258724E-03
              -2.2266827977859283E-03
              -6.9561237857384867E-04
               4.4327810875430217E-03
               1.3279579453565446E-03
              -5.5026241477786359E-03
              -1.3092530111829858E-03
               4.7249109274815505E-03
               1.0880135263789822E-03
              -1.3188826309546266E-03
              -1.4647791512893539E-02
               1.2682860824182681E-02
               5.1531238718150619E-03
              -1.0625574413911914E-02
               2.8883600726301393E-03
              -1.3019593951166875E-03
               3.5508289148855252E-03
               1.2858360158606539E-02
              -1.2909822384689577E-03
               2.5907578064865771E-03
              -5.1695300322649939E-03
              -5.8115827234422948E-03
              -1.5349456249285671E-02
              -2.5383960289812038E-03
               2.0324589700883699E-02
               4.8297900582012403E-04
              -5.5144415326448832E-03
              -4.8403112835137827E-03
               3.8341402816180503E-03
               7.6484761236588457E-03
              -1.8526363096701103E-03
               1.4096472042613309E-02
               4.3984353476125299E-03
              -1.3346610776462450E-02
               5.5084125524823956E-03
              -2.1240357632398500E-03
               3.8673469405146300E-03
               1.4792364309296953E-02
               3.2699115070233802E-03
              -9.0081518616644488E-03
              -6.0118039913145804E-03
              -8.6699996993099080E-03
               1.3124493284998345E-02
               9.2608173997793860E-03
              -8.4340208892780808E-04
              -2.6271875116324873E-03
               4.7800956290658314E-03
              -4.2356164248600562E-03
               2.8638748673674970E-03
              -2.6929705707501384E-03
              -4.5127957727162105E-03
               2.1866464321366277E-03
              -1.2801706521825187E-02
              -4.9404627644802643E-03
               1.9534481771986789E-03
               5.1566987660415170E-03
               2.7354284304744948E-03
              -2.6081878960285405E-03
              -8.2591399044827755E-03
               1.5130021820348474E-02
               7.5727459590082587E-03
              -6.2661987280608893E-04
               2.6379277971991174E-04
               1.2779926222125117E-03
              -9.0178250663212420E-03
               4.7628561905291248E-03
               3.8749639947219445E-03
              -3.7225838444708021E-03
               5.6387775561573064E-04
              -2.4212060621869912E-03
               1.0373196287435252E-03
               2.9770743504015564E-03
               4.3329381788305985E-04
               5.1475279505073393E-03
              -9.4139525312796277E-03
              -8.6861811725804372E-03
               1.3595228299704862E-03
               7.1836071216775273E-03
               8.0644716604001618E-03
               3.4074651160673668E-03
               2.3005698824567606E-03
              -1.0979949423226746E-02
               8.8614996179191500E-03
               2.2811323457034068E-03
              -5.8436002214477534E-03
               1.2059506838791345E-02
              -1.3639074345920108E-02
               1.9782189541386066E-03
               4.3349960520842347E-04
              -1.5444677893939069E-03
               1.6280328719750193E-03
              -1.3394292333498389E-02
              -5.0802890049588233E-03
              -8.6450035297281583E-04
              -2.8182083805187493E-03
              -5.9084664606528310E-04
               1.6939407137363246E-02
               4.2383736905651000E-03
              -4.7077246528975892E-03
               8.2086116996715123E-04
               1.2269593638202209E-02
               1.6722794870772705E-03
              -1.2483338784062699E-02
              -1.3750687816504310E-02
               2.2303926212782392E-03
               6.6498617865724044E-03
               1.6094842203955471E-03
              -4.1496816467775643E-03
               1.4510909800269528E-03
               4.1237387989819596E-03
              -1.6869879150432001E-02
              -1.6087272939675892E-02
               4.2253525530086536E-03
               7.1490944928463331E-03
               6.9183039173481920E-03
               6.6087649974031467E-03
              -6.1887627985314595E-04
              -2.0007701076536740E-03
              -2.0137520575818090E-02
               4.9508268346001513E-03
               5.4424005296951749E-03
               6.8855179460114626E-03
              -5.4037414359715341E-04
               3.3388016040175654E-04
              -5.5561567917647506E-03
               1.9122616120820380E-03
               3.2911340767264353E-03
              -3.3624856849174692E-03
               7.8841620241728704E-03
              -1.4250281336885970E-04
              -4.1090545357679172E-04
               1.4748632833827169E-03
              -4.7581987587765719E-03
               2.8445600315787543E-04
              -1.9801658046233643E-03
               7.8398525516277778E-03
              -4.8694113226111111E-03
              -5.9994249533714197E-03
              -3.6118203941246391E-03
              -1.9853255855399451E-03
              -5.4339336255617484E-03
               1.3272078590280787E-03
              -7.3018678511461662E-04
               5.4593465670129291E-03
              -2.6886036927390722E-03
              -4.2174617115468670E-03
               2.1025346074770228E-03
              -7.7739676625070385E-03
               6.9140153368360806E-04
               9.4899300704354445E-03
               1.1100298492016933E-03
               1.3588535921567639E-04
              -7.4117704075167849E-04
              -4.6877687300450995E-04
              -3.2449913781837782E-03
               3.3536622071744997E-03
              -3.9935386566352822E-03
               3.2481378006735950E-03
               1.6285091086457294E-02
              -2.2754603101530131E-03
               3.1271822426883452E-03
              -3.5343018984099217E-03
               4.3817022187245718E-03
               2.1006238121609897E-03
              -2.8791369622273169E-03
              -6.5394813743262122E-03
              -1.0531770676160635E-02
               5.6650858163643583E-03
               1.0971311709273138E-02
               4.9692864859334877E-03
              -5.0958211096144646E-03
              -1.6901115207277213E-04
              -4.4138457968927415E-03
              -5.9868251711378880E-03
               9.2128072286111803E-03
              -8.2661792229494126E-03
              -2.3932389070065424E-04
               1.5554653904282885E-02
               7.7718080695041527E-04
               5.7580929596862075E-03
               8.8506964130435108E-03
               1.0276587825429924E-02
               3.2140684997416938E-03
              -1.6987331880742675E-02
              -4.4237023233113177E-03
              -6.2828475219286299E-03
               6.7913140807710241E-03
              -2.4640056667834593E-04
               1.3735045639117292E-03
              -8.4169643519601822E-03
              -1.0172981771153593E-02
              -7.6041521605445511E-04
              -4.3155801350291704E-03
               5.5216897283244179E-03
               1.1476486631702580E-02
               6.8798322111087986E-03
               6.1082468844055153E-03
               9.9220725995450773E-03
               5.7145969504215823E-03
               4.1801702751396077E-03
              -1.4087576868321480E-02
              -1.9687164824610474E-03
               8.4639492098241564E-03
              -3.1827950988356645E-03
               2.7029217774723587E-03
               1.1578099560157215E-03
               5.6422331396320557E-04
               1.1569197975720524E-03
              -2.1077264350531492E-03
               4.7355280596657889E-03
              -1.1801289445189508E-03
               3.6008482584636756E-03
               3.9882497070027143E-03
              -8.6688626521788034E-03
              -1.7996650347243206E-03
              -4.3832070107373659E-03
               1.1487702263313910E-03
              -1.7292841302380679E-03
               3.4029388843327076E-03
              -5.3673407265449726E-03
               7.7386892980614097E-03
              -7.1212744571834000E-03
               1.0542020326300517E-02
              -1.5863093456831598E-03
               1.1814605837268720E-03
               4.2610146350975367E-03
               2.4602418379865644E-03
              -6.7131341616390372E-03
              -3.7919310641207186E-04
              -3.4002607364352374E-03
              -1.5048193962138657E-03
               2.0059806320874367E-03
               1.3734081238025123E-03
               7.6575987864838787E-03
               1.9071097193380079E-03
               7.4342572245270186E-04
              -1.0202747932884554E-02
               1.1276172195245847E-02
               2.9899213039137782E-03
              -1.0555890940207910E-02
              -4.7449272675577428E-03
               2.9468747704236211E-03
               9.6706440820086489E-03
               2.6525935931218931E-03
              -3.0311049519763625E-03
               6.3426072997337778E-03
              -7.0393749030564674E-04
              -8.7010448645014130E-03
               1.3866208969422037E-02
              -2.0937131266339511E-02
              -5.4300778313845161E-03
               6.7414434670649602E-03
               6.3162957647624586E-03
               8.1404855993159604E-04
              -1.2918289409263758E-02
               4.9380922739995945E-03
               4.5345081751186284E-03
               7.3565114545980177E-03
              -5.5540221840716716E-03
               3.8180605975398595E-03
              -6.2062184740750712E-03
              -4.1771897588027329E-03
               7.2604603024520155E-03
              -1.7721832191448293E-03
               8.7203749175993259E-03
               1.0239460239319906E-02
              -8.3417358785127706E-03
              -1.1460790710112171E-02
               1.7503375960402226E-03
               1.5770061627407496E-03
              -8.9560401919976823E-05
              -4.1491515554859804E-03
              -1.0398075209994541E-03
               1.2043374916404528E-02
               9.9013056802431973E-04
              -6.5383173576562840E-03
              -5.2854172850225695E-03
               1.5247944177605973E-03
               2.1280459082993102E-03
              -9.0671821580255892E-04
               2.7298387862734197E-03
               2.1603101070479607E-03
               6.0236448740366303E-03
               9.3740002292122121E-03
              -8.8158526126892369E-03
              -2.1264879441865465E-03
              -5.5572430370254635E-04
              -4.6656567383719112E-03
               1.5754320075092496E-03
               3.2128699358196021E-03
              -2.0909342496832004E-03
              -3.0188684825353195E-03
               1.2543543694275457E-02
              -1.5900823222682263E-03
              -1.2958664743123536E-04
               3.4297412316077721E-03
              -3.2638301601314455E-04
              -6.3712461344346636E-04
              -1.1242265291417457E-03
               1.0516653331739845E-02
               4.0552230734623726E-03
              -3.9476957057459090E-03
               1.0771928159754043E-03
              -9.0516460790709594E-04
              -4.6188967784141291E-03
              -3.1231637156146305E-03
              -4.1615218956045988E-03
              -6.3138299780902971E-03
               9.3063438850885787E-03
               4.1969877203552278E-03
               9.8249362123077472E-03
               1.6042597139917392E-03
              -8.7779027713073797E-03
         &END THERMOSTAT_ENERGY
         &RNG_INIT
Wiener process for Thermostat # 1        1 F T T   4.7708668570015617E-01        4071406545.0        3237817561.0        4156018283.0         287886652.0        1008939610.0        2195589965.0             12345.0             12345.0             12345.0             12345.0             12345.0             12345.0             12345.0             12345.0             12345.0             12345.0             12345.0             12345.0
Wiener process for Thermostat # 2        1 F T T   1.3107605222554084E+00        2682451900.0         142804535.0         551556820.0         384250935.0         904637425.0        3531713680.0        3692455944.0        1366884236.0        2968912127.0         335948734.0        4161675175.0         475798818.0        3692455944.0        1366884236.0        2968912127.0         335948734.0        4161675175.0         475798818.0
Wiener process for Thermostat # 3        1 F T T  -7.6805277664608285E-01        1090064477.0        2482846192.0         243219971.0         600092061.0        1746342012.0        3813311990.0        1015873554.0        1310354410.0        2249465273.0         994084013.0        2912484720.0        3876682925.0        1015873554.0        1310354410.0        2249465273.0         994084013.0        2912484720.0        3876682925.0
Wiener process for Thermostat # 4        1 F T T   9.4218699431076591E-01        1727830391.0        3999301182.0         695580498.0        4019479825.0         945997632.0         755367387.0        2338701263.0        1119171942.0        2570676563.0         317077452.0        3194180850.0         618832124.0        2338701263.0        1119171942.0        2570676563.0         317077452.0        3194180850.0         618832124.0
Wiener process for Thermostat # 5        1 F T T  -9.1082595275300759E-01        1071712871.0        3137956572.0        1933945990.0        3736677909.0        2113856532.0        1860748185.0        1597262096.0        3906379055.0        3312112953.0        1016013135.0        4099474108.0         275305423.0        1597262096.0        3906379055.0        3312112953.0        1016013135.0        4099474108.0         275305423.0
Wiener process for Thermostat # 6        1 F T T  -3.6434742600984754E-01         787787418.0        2880195332.0        3987423785.0        3080634442.0        2293200184.0        1631097565.0          97147054.0        3131372450.0         829345164.0        3691032523.0        3006063034.0        4259826321.0          97147054.0        3131372450.0         829345164.0        3691032523.0        3006063034.0        4259826321.0
Wiener process for Thermostat # 7        1 F T T   5.2209362363590577E-02        1010206612.0         266999562.0        1446496835.0        1168147983.0        2403545213.0        1874824521.0         796079799.0        2105258207.0         955365076.0        2923159030.0        4116632677.0        3067683584.0         796079799.0        2105258207.0         955365076.0        2923159030.0        4116632677.0        3067683584.0
Wiener process for Thermostat # 8        1 F T T  -2.7419913064424671E-02         477288921.0         626587503.0        2914372379.0         543046961.0        2811883996.0        2649320977.0        3281794178.0        2616230133.0        1457051261.0        2762791137.0        2480527362.0        2282316169.0        3281794178.0        2616230133.0        1457051261.0        2762791137.0        2480527362.0        2282316169.0
Wiener process for Thermostat # 9        1 F T T  -6.6613538176382037E-01        2281843574.0         706946937.0        1688905729.0        2868887133.0        3668309619.0        2637520384.0        3777646647.0        1837464056.0        4204654757.0         664239048.0        4190510072.0        2959195122.0        3777646647.0        1837464056.0        4204654757.0         664239048.0        4190510072.0        2959195122.0
Wiener process for Thermostat # 10       1 F T T   4.7729075204828536E-01        1546488230.0        3142897945.0        4271813352.0        3872020608.0        3279772339.0        1324206341.0        4215590817.0        3862461878.0        1087200967.0        1544910132.0         936383720.0        1611370123.0        4215590817.0        3862461878.0        1087200967.0        1544910132.0         936383720.0        1611370123.0
Wiener process for Thermostat # 11       1 F T T   1.4014913177260124E+00        3016834580.0          34401030.0        2215268639.0         710787116.0         914989096.0        2629988204.0        1683636369.0         362165168.0         814316280.0         869382050.0         980203903.0        2062101717.0        1683636369.0         362165168.0         814316280.0         869382050.0         980203903.0        2062101717.0
Wiener process for Thermostat # 12       1 F T T   1.3129383503697716E+00        3146632859.0        1965463438.0        2767355175.0         470353356.0        2790915942.0        1991111752.0         272317999.0         166758548.0         310112982.0         201045826.0        1680231254.0         118290799.0         272317999.0         166758548.0         310112982.0         201045826.0        1680231254.0         118290799.0
Wiener process for Thermostat # 13       1 F T T   1.5094198451250169E+00        2863524976.0         136522173.0        1250591868.0         103015522.0        1859180982.0        2208222937.0        2245755202.0        1652682525.0        2865544364.0         721509566.0         209733568.0         592362218.0        2245755202.0        1652682525.0        2865544364.0         721509566.0         209733568.0         592362218.0