 # Version information for this restart file 
 # current date 2022-11-29 17:04:15.389
 # current working dir /home/yx2892/comp-lab-class/Week12/Runs/Proton
 # Program compiled at                              Sat Dec 12 18:27:15 EST 2020
 # Program compiled on                                         cs001.nyu.cluster
 # Program compiled for                                                nyu-intel
 # Source code revision number                                       git:8c64c6e
 &GLOBAL
   PRINT_LEVEL  LOW
   PROJECT_NAME proton_aimd_1ns_every0.5fs
   RUN_TYPE  MD
   WALLTIME 21600
 &END GLOBAL
 &MOTION
   &GEO_OPT
     OPTIMIZER  BFGS
     MAX_ITER  100
     MAX_DR     3.0000000000000001E-03
     &BFGS
     &END BFGS
   &END GEO_OPT
   &MD
     ENSEMBLE  NVT
     STEPS  2000000
     TIMESTEP     4.9999999999999994E-01
     STEP_START_VAL  500
     TIME_START_VAL     2.4999999999999795E+02
     ECONS_START_VAL    -1.1027288227596132E+03
     TEMPERATURE     3.0000000000000000E+02
     &THERMOSTAT
       TYPE  GLE
       REGION  MASSIVE
       &GLE
         NDIM  5
         A_SCALE     1.0000000000000000E+00
         A_LIST     1.8595758612559999E+02    2.7263853498399998E-01    1.1526100454610001E+01   -3.6414578262600003E+01 \
             2.3173375816020001E+02
         A_LIST    -2.7809524712060002E-01    8.5951591808710006E-05    7.2189048017650004E-01   -1.9844539343859999E-01 \
             4.2409257583420001E-01
         A_LIST    -1.4825808131210000E+01   -7.2189048017650004E-01    1.3590902121280000E+00    5.1498896280349999E+00 \
            -9.9949268450990001E+00
         A_LIST    -1.0372189126880000E+01    1.9844539343859999E-01   -5.1498896280349999E+00    2.6661910891169999E+01 \
             1.1507715495310000E+01
         A_LIST     2.1801346360420001E+02   -4.2409257583420001E-01    9.9949268450990001E+00   -1.1507715495310000E+01 \
             3.0958394565589998E+02
         &THERMOSTAT_ENERGY
              -2.6794859640233027E-03
              -1.0787483901728858E-03
              -1.5226969281643484E-03
               7.3658295969168989E-04
              -6.1757186996432871E-03
               1.1172812680541322E-03
              -2.7915907836236179E-03
              -2.6726821561756805E-03
               6.9467667369756073E-03
               2.6458024181718184E-03
               6.6319695544314180E-03
              -3.0030950206819491E-03
               3.1543990857500542E-03
              -7.2561423692052006E-04
              -1.3571460922564957E-03
              -3.8009878382486368E-03
               2.3180803889509640E-03
              -2.9088631868736600E-03
               4.7515339996501444E-03
              -7.1791470173799632E-04
               2.7823939490902380E-03
              -3.6713773755896783E-03
              -1.1638234484763654E-03
               1.9240535578887263E-03
              -3.7213086479352992E-03
              -2.1856453493625895E-04
              -3.0870107891619791E-03
               4.7442175410710380E-03
              -3.7392069180948239E-05
              -8.8352671352762765E-04
              -4.0862906206714632E-03
               2.0730445979851428E-03
               6.1291465215107810E-03
              -1.9633817664947584E-03
              -2.1472198624540714E-03
               5.4803173869387972E-03
              -1.1017508641496031E-03
              -2.6359095408017870E-04
               1.8380196588211333E-03
              -4.1894038979557379E-03
               3.6260718862334436E-03
              -4.8883021010066581E-04
               3.8050905226166497E-03
               3.7679525458221954E-03
              -8.5837085571191865E-03
               4.6358020467411202E-03
              -2.4469571568514594E-03
               1.6573410252124191E-03
              -4.7779725820358372E-03
               1.6692332886593501E-03
               8.6021490173141413E-04
              -2.5872600009470780E-03
               4.0260778735700298E-04
               1.0485274213428179E-03
              -4.1312018528548728E-03
               3.2722290108041100E-03
               8.7409317847631375E-04
               1.0853232812246903E-03
               2.0555590522790463E-03
               4.5853894712341112E-03
              -1.9402660959602475E-03
               1.5368835597383418E-03
               5.2423077244319648E-03
               5.1225577968056152E-03
               1.4956237468713800E-03
               2.1049033440213392E-03
              -3.1389920342255264E-04
              -1.9013903806268080E-03
               1.2440077590473936E-02
               7.1404256230578472E-03
               5.1927539287795416E-03
               2.1577175104528033E-02
              -5.0108319950117810E-04
               7.9280221045963844E-04
              -1.8635860579437375E-03
              -4.5092942213682645E-03
               2.3738707628131067E-03
              -4.8446345118536579E-04
               4.7080700942877573E-03
               1.3739649910750659E-03
              -2.5075091855857215E-03
              -1.7422771204090267E-03
               1.2880003832236486E-03
              -1.8177873970339506E-03
               2.5399750398791840E-03
               1.6140125406655542E-03
              -4.6460507823952099E-03
               3.1988145504141087E-03
               2.0811148298425092E-03
              -4.9097202497905713E-03
               3.1112495099900107E-03
              -6.3021855417710925E-03
               2.5193524188201525E-03
              -3.0100044591697172E-03
              -5.3736276567517005E-03
               6.0124028706263176E-03
               4.7536524131780366E-03
               2.3088998785348843E-03
               7.1681013919428502E-04
               3.7022005572265259E-03
               7.0867424779474020E-04
              -2.4705719449214384E-03
              -1.8844437840535198E-03
              -2.3265394566410204E-03
               1.4909764921322149E-03
              -1.9850426471927523E-03
               2.1331876636515403E-03
              -1.1447628088296507E-03
               4.8412632392391798E-03
              -9.8767429691359833E-04
               2.4541064075368300E-03
              -8.1938157891721288E-04
               2.7531660174514752E-03
               2.0133610617852024E-03
               2.8103057020097315E-03
               4.8537150467887437E-03
              -7.7582055387985195E-03
               3.1765562556170497E-03
              -4.0624999115025573E-03
              -1.6305966890333068E-03
              -1.7709754239003620E-03
               2.9796980816627571E-03
               1.9709315509218619E-03
              -3.8225954618102283E-03
              -4.1123569257590946E-03
              -3.8521642728592807E-04
               1.4779990670291804E-03
               2.3304096938683681E-04
               2.6044977968831947E-03
               2.0497724971409504E-03
              -4.9436813111577785E-03
               5.3022894669566044E-03
               3.1043950518888346E-03
              -3.9221366596525007E-03
              -2.8597794916404755E-03
               7.8916652738795785E-04
              -2.7908460905683567E-03
              -1.4567200304960984E-04
               1.3023961137639773E-06
              -5.8333753879505285E-03
               5.7927017300239882E-03
               2.5802209282120578E-03
               1.3407869632088103E-03
               8.2724629195858384E-04
               1.0901053496807584E-03
              -2.7670845926841773E-03
               4.4080331492410002E-03
               1.1790922831080512E-03
              -1.7794771508177403E-03
               2.6248917927768397E-03
              -7.9394575955964945E-03
               3.0264479622751877E-03
              -2.9846713196090180E-03
               1.2989394247310867E-03
               9.2001034746228786E-04
              -3.2904843588558077E-03
               4.0969123388435557E-04
              -3.3073496330115319E-03
              -1.5410456918269837E-03
               5.0223029644374121E-03
              -5.4348552579521784E-03
               6.2744101955168575E-04
              -9.7411277114850666E-04
              -5.6503623488958864E-05
               3.2881583917824891E-03
               8.3602838709500478E-03
               2.3347263654126594E-03
              -9.9186868731865850E-03
              -4.6314945143521302E-03
               4.3287709484181409E-03
              -8.9574184904740397E-05
               2.8720749550237468E-03
               1.9281740096944505E-03
              -1.2586921318025550E-03
               2.1630943113131566E-02
               1.1090723188820605E-02
               3.3659166649986499E-02
              -3.8248610000064936E-03
               5.2613587932771972E-03
              -4.5199818235840047E-04
               3.8952068592729154E-03
               2.7268553728398378E-03
               1.2147191750452440E-02
              -5.2741251766031507E-03
               3.3609922501979232E-04
              -5.8654418822579437E-04
               4.9394621332465270E-03
              -4.7373583299463017E-03
              -1.4632095927666791E-03
              -2.7539916193982370E-03
              -4.4472798263566946E-05
               1.3451378821186266E-03
              -2.5915862187663495E-03
              -4.4143077049885035E-03
               1.5097258894794532E-03
               1.7530519823956519E-03
              -3.8111849772700826E-03
               1.4223652395017332E-03
               5.0895252113843982E-06
               4.8248383974057660E-03
               1.9139165578185939E-03
               3.0294872832382479E-03
               2.4378872879722005E-03
               2.8484038180236568E-03
              -6.5608786279871250E-03
              -5.8013985649502040E-03
               1.9162097238018794E-03
               1.0457808081683882E-04
              -7.5437988818790481E-03
               8.7669934697812476E-03
              -7.9496314674690324E-04
               9.1487312920413043E-04
               7.3598094992017565E-03
               2.6335672561376144E-03
              -6.1711628673658311E-03
               4.5345471114506290E-03
              -3.6201824236597683E-03
              -5.6204850630635979E-04
              -2.1614223437172926E-03
               1.0838356910095606E-03
              -2.0481745137223236E-03
              -3.6708374745505394E-04
              -8.1810228918134317E-05
               4.2607124158862094E-04
              -2.5708888209503480E-03
              -1.6263997542374068E-04
               8.4394943740648916E-04
              -1.0174987688655582E-03
              -1.2560893576944983E-03
              -7.7778082510102065E-04
              -2.4044350103003525E-03
               4.3336230860172428E-03
               5.9239609934270653E-03
              -2.1763492733729802E-03
              -2.1927474742604335E-04
              -1.8668936750732544E-05
              -3.6475360972860532E-03
               1.7973933343375811E-04
               1.6113023177858265E-04
              -2.4804478053476703E-04
              -4.8912945168877895E-03
               2.5630261386570571E-03
               2.5872060849538281E-03
              -3.1073970782996324E-04
              -2.4514578642825979E-03
              -1.6185707446891612E-03
              -1.3496268206519022E-04
              -2.5986130863098100E-03
              -1.0510198255024204E-03
              -3.6991469205612782E-03
              -1.1804317191703164E-03
               2.1056711445245125E-03
              -4.0185513809889734E-03
              -8.1742740854198162E-04
               4.8773504237750358E-03
              -2.5499012069543411E-03
              -1.8121695519667243E-03
              -7.3523128179689304E-04
               2.4627552002423007E-04
              -2.0274545059139636E-03
               2.8865882879114914E-03
               4.0500399981217988E-03
               4.7029094413971557E-03
              -4.2618788952814295E-04
               8.9768260657968439E-04
               2.4104738131357482E-03
              -2.3422083618937291E-03
               6.6098641388857163E-03
              -7.1028685339794119E-03
               1.2713521057828225E-03
              -1.5722684305254401E-03
              -5.6686859978911687E-03
              -3.5955311966617016E-03
               1.7617426048131637E-03
              -2.1653368954652800E-03
              -2.1537141652280311E-03
              -3.3219138475425428E-03
               5.3645022605885474E-03
              -2.1338402658710258E-04
              -5.8436955537782267E-04
              -3.0374348748868005E-03
              -4.1622201939063817E-03
              -3.4489778995403593E-04
               5.7698473843061345E-03
               2.4875292180549843E-03
               2.9340362904623002E-03
               4.6683466257701886E-03
              -4.2352873548965313E-03
              -3.1040350497967351E-03
               4.7722951864096527E-03
               2.6627590963245922E-03
              -5.5900168650912358E-04
               1.2182558905392206E-03
               1.2665093170582302E-03
              -8.3183569159775244E-04
               8.5769557153637828E-03
              -7.0711811869122992E-03
               3.4680119968750018E-03
              -4.6935277621737122E-04
              -3.3466267553319698E-03
               3.1677477569612756E-03
               1.1525091574857091E-03
               4.8568360642517851E-03
               5.7185841844917687E-03
              -6.8675136511113348E-04
              -2.7212927129826501E-03
              -5.9573232477626269E-03
               1.2176311030598875E-03
              -6.6602358370143979E-04
               2.6771873722174037E-04
              -5.4544509800028755E-04
              -3.5198256332622108E-03
               2.2819109541892474E-03
               1.8299336778246204E-03
               7.2735742100014022E-05
              -2.1732065890074808E-03
              -3.1128925461965115E-03
               3.7406828634269527E-03
              -2.1905974778213036E-03
               2.0331591185177877E-03
               2.6775863861708809E-03
              -1.2822762315945597E-03
              -2.3183316602371396E-04
              -3.6597389406368861E-03
               9.1539517077573779E-04
               5.6913919949415801E-03
               3.1782962790642762E-03
               1.2487184096901204E-03
               1.2933028889824738E-04
              -2.2186853409968954E-03
              -2.8436147874639382E-03
               5.3875634722870189E-04
               3.1310673486659906E-03
               3.4804269095408333E-03
              -1.8070531884074464E-03
               4.3080205052686794E-04
               2.3260726440500873E-03
               1.2197858551390968E-03
               3.5339490135035978E-03
               4.6577355673614379E-03
              -1.0540225900206564E-03
               5.7144777744559997E-04
               1.3295583416596875E-03
               2.7291502099540820E-04
               9.5817908973230078E-04
               1.0269522072682629E-03
               9.8315180593364863E-04
              -4.7372765695721732E-05
               2.2660902283273554E-03
              -4.1133488454643168E-03
               4.1845847487845332E-04
               1.6912560836863009E-03
              -8.0315351176203273E-04
               4.8605771698236357E-03
              -2.5793643767862955E-03
               1.4697902065401824E-03
              -1.9595482461112310E-03
               3.0684810526330781E-03
              -1.7794085243337992E-03
              -3.9764142430214599E-03
               3.1223979898420606E-03
              -3.7548013040174769E-03
               7.8078564160115283E-03
               2.6768087587991079E-03
               4.4725906824421408E-04
               2.8511274682595750E-03
               9.6646342835441362E-03
               2.6449123951415531E-04
              -1.3150128303271889E-02
              -1.3499718426346035E-03
              -4.2286279655174494E-03
              -9.1053852023862617E-04
               9.2478626505063534E-04
              -2.3099756377165624E-03
              -1.8401107612997208E-03
               3.1845200560049929E-03
              -5.2039332904926638E-03
              -7.0459747567092829E-03
               5.6506381469825643E-04
               2.4937517081916705E-03
               3.2194977133088963E-03
               2.1978801069828783E-05
               3.7876062683851660E-04
              -5.7274149731683798E-04
              -4.5093563721012265E-03
              -5.8097400018345660E-04
               4.2491395311846421E-03
              -1.4009249554805547E-03
               2.8153831976795683E-03
               4.4622725775167026E-03
              -1.0303991360496559E-03
               2.1533646951952578E-03
               2.7183811595896481E-04
              -5.6581181795626592E-03
               1.0785536049240012E-03
               4.3594529399913528E-03
               4.2052013430573330E-03
               1.4344820019013765E-04
              -6.4263167596654902E-05
              -2.9929522729291811E-03
              -2.6934792008148399E-03
               2.0848226784210707E-03
               5.9010517322170596E-03
               2.5883083496884155E-03
              -5.7688069075522326E-03
              -2.6804604043289084E-03
               8.6972894101070160E-04
              -6.8095167299442247E-03
              -2.8053017302873237E-03
               1.4582786489527461E-03
               3.2511138747631611E-04
              -1.0898400576405294E-03
               1.4065532090631538E-03
              -4.7925522459174542E-03
               6.2621449268120396E-05
               5.3723259649635854E-03
              -3.0274022357594638E-03
               2.5139932213971835E-04
              -3.2322444880019503E-04
              -5.9058787431776234E-04
               3.7784334068769747E-03
              -4.1239806618547847E-03
               8.1075717957186560E-05
               2.5294573195606810E-04
               2.9338250426785401E-03
               1.4544820300800773E-03
               9.6112152834796087E-04
              -5.2802443866539718E-03
               4.0463003313252728E-03
               6.9944357178362273E-03
              -1.0332865274623761E-03
              -3.6105801854338144E-04
              -4.2707205439533429E-03
              -2.8882739358065518E-03
               4.1086521842682794E-03
               4.4715837471447006E-03
               8.9281811730615359E-04
              -1.8615410984073966E-03
              -1.3743985629655934E-03
               6.0379951586124036E-04
               3.5136341799381324E-03
              -1.6105595028890752E-04
               6.5246126800669899E-04
               2.3330825070753676E-03
               3.4812633923788456E-03
               7.6892527994590785E-03
               4.2189820546623341E-03
              -1.4236216749515963E-03
              -1.1538003707605023E-03
              -8.2179678338456204E-04
              -2.5723574875010464E-03
              -8.0821236226956937E-03
               4.3843078221190730E-03
               6.5416689935152931E-04
              -1.0591352827896013E-03
              -2.7379793415390433E-03
               1.4537829522546135E-03
              -1.1936752521884155E-03
               5.9622505553984001E-04
               3.1538613639063317E-03
              -2.1511571670691787E-03
               3.7554473109805272E-03
              -1.7816764129067093E-03
               8.4440529232945221E-04
               6.5708523725138196E-03
               3.0877558993053639E-03
              -4.7032806573420738E-03
              -7.8337704142975202E-04
               4.1875542256142827E-04
               2.4658769897747887E-03
              -2.3487261444144463E-03
              -2.1067024157262496E-04
               4.3516651698424832E-03
              -4.2990136440163338E-04
              -1.3876048201866701E-03
               5.2427143151468234E-03
              -1.1886041928171646E-03
               5.7226751976698813E-04
              -5.0652639284556669E-03
               6.3494006906511741E-04
              -6.6211929415961124E-04
              -9.4960107486020571E-05
               2.0444741131282569E-03
               3.3382299996353366E-03
              -3.9656594914985949E-04
              -3.0142641395672670E-03
              -1.0081519452748147E-03
              -8.4990886061910680E-03
               5.2984946281397285E-03
              -8.2668279411509272E-05
              -3.5030992094226021E-04
               1.9232053069474380E-03
              -1.6241521856724460E-03
              -4.8195257689732408E-03
               2.6348858110761312E-03
              -6.6888177236410816E-03
               6.4672473008719634E-03
               6.0921600782886144E-03
               3.8993910295141224E-03
               2.6169429928220595E-03
               2.1329291853999103E-05
              -1.6964873859769262E-03
              -7.5430173188532094E-03
               6.1703192167987912E-03
              -3.9576749678675348E-03
              -6.6193985078519162E-03
               1.9748491177644994E-03
               2.8340498137089474E-03
               1.2939311956869468E-03
               2.7067396254814779E-03
               4.2681718971996144E-03
               1.1343217164198351E-03
              -2.2684623307962296E-03
              -7.3192725210520322E-03
               3.2634970909642342E-03
               2.2020143412191948E-03
              -4.2635604105747474E-03
               3.5344611976306614E-03
               5.6190149327258994E-03
              -3.9371038465099029E-03
              -3.2066183465986593E-04
               4.3206991804827964E-04
               1.5309880624091296E-03
              -3.1479885624772731E-03
              -1.4978733635173450E-03
               2.0516829640476542E-03
              -1.9850549406285204E-03
              -1.4866914568783538E-03
               8.9176837978673703E-03
               4.0144507177613540E-03
              -3.2040552394361709E-03
              -1.6632406167128122E-03
               1.6282106136206878E-03
              -6.2734424410959702E-03
               2.1653812271135659E-03
              -4.1324684779171214E-04
              -4.5034678697751550E-04
               4.6606054555497459E-04
               2.8556283447684779E-03
               3.0810863030566787E-04
               1.2712272478385630E-03
              -1.4878297227694962E-04
              -3.3650285651826164E-03
              -2.4347163562656987E-04
               3.3395690975821326E-03
               6.2760728091153131E-04
              -3.4445494625034073E-05
               4.0873675490942212E-03
               3.0720703738819017E-03
               5.8408356247223918E-03
              -5.7938088445304700E-03
              -5.8068363801950769E-03
              -3.0970047143918391E-05
              -1.3296404667332271E-04
              -1.7432196596210891E-03
              -8.5418469433024401E-03
               9.1441551676797240E-04
              -7.5234900306285187E-04
               7.3490511575909738E-03
               1.8139644048439487E-03
               4.3544927311674839E-03
               6.4740269189806862E-04
               1.6805973938659112E-04
               1.8915222238753946E-03
               8.3078748123183903E-04
               7.5061314019334103E-03
              -7.3720277071358514E-03
              -6.3295620703978078E-03
               6.4041887266119060E-03
              -5.6863078242012574E-03
               1.3570133588133436E-03
              -5.1238643014341126E-03
              -2.8678462642949118E-03
              -2.4417708481700349E-03
               3.0916317046013426E-03
              -2.2374221307978974E-03
               8.5142548064599496E-04
               1.1227710321514858E-02
              -4.5882565414556214E-03
         &END THERMOSTAT_ENERGY
         &RNG_INIT
Wiener process for Thermostat # 1        1 F T T  -1.5505429657892764E+00         661802595.0        2026459976.0        3136775027.0        3268219721.0        1056216878.0        3744216088.0             12345.0             12345.0             12345.0             12345.0             12345.0             12345.0             12345.0             12345.0             12345.0             12345.0             12345.0             12345.0
Wiener process for Thermostat # 2        1 F T T   1.5766939834860993E-01        2521559082.0        1979391111.0        3972826820.0        2839528192.0        3960449033.0        3051881342.0        3692455944.0        1366884236.0        2968912127.0         335948734.0        4161675175.0         475798818.0        3692455944.0        1366884236.0        2968912127.0         335948734.0        4161675175.0         475798818.0
Wiener process for Thermostat # 3        1 F T T  -1.6802103653762466E+00        2464096834.0        3454226368.0         668358963.0        3607867155.0        2139338144.0        1695442074.0        1015873554.0        1310354410.0        2249465273.0         994084013.0        2912484720.0        3876682925.0        1015873554.0        1310354410.0        2249465273.0         994084013.0        2912484720.0        3876682925.0
Wiener process for Thermostat # 4        1 F T T  -9.2120442907176847E-01        3007810664.0         626544053.0           5688727.0        2019501767.0        4050809287.0        2188826537.0        2338701263.0        1119171942.0        2570676563.0         317077452.0        3194180850.0         618832124.0        2338701263.0        1119171942.0        2570676563.0         317077452.0        3194180850.0         618832124.0
Wiener process for Thermostat # 5        1 F T T   1.9586792436148486E+00        3119398129.0        2238966874.0        1731687009.0        1729823850.0        3912388439.0         182524877.0        1597262096.0        3906379055.0        3312112953.0        1016013135.0        4099474108.0         275305423.0        1597262096.0        3906379055.0        3312112953.0        1016013135.0        4099474108.0         275305423.0
Wiener process for Thermostat # 6        1 F T T  -2.2012851380256623E-01         527820745.0        2447393615.0         338698828.0         653439858.0         976211817.0        3944196308.0          97147054.0        3131372450.0         829345164.0        3691032523.0        3006063034.0        4259826321.0          97147054.0        3131372450.0         829345164.0        3691032523.0        3006063034.0        4259826321.0
Wiener process for Thermostat # 7        1 F T T  -1.2191095662093037E-02         167278661.0        2992638024.0        1197931920.0         124710794.0         889033703.0        2194094787.0         796079799.0        2105258207.0         955365076.0        2923159030.0        4116632677.0        3067683584.0         796079799.0        2105258207.0         955365076.0        2923159030.0        4116632677.0        3067683584.0
Wiener process for Thermostat # 8        1 F T T  -2.6373530393371375E-01        2923147749.0        3809475671.0         892364519.0        3114385888.0        3523415917.0        3402922821.0        3281794178.0        2616230133.0        1457051261.0        2762791137.0        2480527362.0        2282316169.0        3281794178.0        2616230133.0        1457051261.0        2762791137.0        2480527362.0        2282316169.0
Wiener process for Thermostat # 9        1 F T T  -1.2388913960989989E+00         276694386.0        3384434371.0        2194062143.0        3864498526.0        2498625561.0        4174179731.0        3777646647.0        1837464056.0        4204654757.0         664239048.0        4190510072.0        2959195122.0        3777646647.0        1837464056.0        4204654757.0         664239048.0        4190510072.0        2959195122.0
Wiener process for Thermostat # 10       1 F T T  -6.9271884074884071E-01         298842605.0        4183294382.0        3769908432.0        1623977651.0        3452521187.0         349927101.0        4215590817.0        3862461878.0        1087200967.0        1544910132.0         936383720.0        1611370123.0        4215590817.0        3862461878.0        1087200967.0        1544910132.0         936383720.0        1611370123.0
Wiener process for Thermostat # 11       1 F T T  -3.9199517781213300E-01        1183014876.0        2469777470.0        2706060047.0        1374668043.0         490283634.0         131761905.0        1683636369.0         362165168.0         814316280.0         869382050.0         980203903.0        2062101717.0        1683636369.0         362165168.0         814316280.0         869382050.0         980203903.0        2062101717.0
Wiener process for Thermostat # 12       1 F T T   1.2248374085476998E+00         744312290.0        1838623065.0        1895433531.0        2930723882.0        3034111406.0        1223209339.0         272317999.0         166758548.0         310112982.0         201045826.0        1680231254.0         118290799.0         272317999.0         166758548.0         310112982.0         201045826.0        1680231254.0         118290799.0
Wiener process for Thermostat # 13       1 F T T   1.6053528300026945E-02         341235087.0         365462780.0         607175623.0        3292057964.0        1611524565.0         256574977.0        2245755202.0        1652682525.0        2865544364.0         721509566.0         209733568.0         592362218.0        2245755202.0        1652682525.0        2865544364.0         721509566.0         209733568.0         592362218.0