 # Version information for this restart file 
 # current date 2022-11-29 18:17:14.435
 # current working dir /home/yx2892/comp-lab-class/Week12/Runs/Proton
 # Program compiled at                              Sat Dec 12 18:27:15 EST 2020
 # Program compiled on                                         cs001.nyu.cluster
 # Program compiled for                                                nyu-intel
 # Source code revision number                                       git:8c64c6e
 &GLOBAL
   PRINT_LEVEL  LOW
   PROJECT_NAME proton_aimd_1ns_every0.5fs
   RUN_TYPE  MD
   WALLTIME 21600
 &END GLOBAL
 &MOTION
   &GEO_OPT
     OPTIMIZER  BFGS
     MAX_ITER  100
     MAX_DR     3.0000000000000001E-03
     &BFGS
     &END BFGS
   &END GEO_OPT
   &MD
     ENSEMBLE  NVT
     STEPS  2000000
     TIMESTEP     4.9999999999999994E-01
     STEP_START_VAL  1000
     TIME_START_VAL     4.9999999999999636E+02
     ECONS_START_VAL    -1.1027288227596132E+03
     TEMPERATURE     3.0000000000000000E+02
     &THERMOSTAT
       TYPE  GLE
       REGION  MASSIVE
       &GLE
         NDIM  5
         A_SCALE     1.0000000000000000E+00
         A_LIST     1.8595758612559999E+02    2.7263853498399998E-01    1.1526100454610001E+01   -3.6414578262600003E+01 \
             2.3173375816020001E+02
         A_LIST    -2.7809524712060002E-01    8.5951591808710006E-05    7.2189048017650004E-01   -1.9844539343859999E-01 \
             4.2409257583420001E-01
         A_LIST    -1.4825808131210000E+01   -7.2189048017650004E-01    1.3590902121280000E+00    5.1498896280349999E+00 \
            -9.9949268450990001E+00
         A_LIST    -1.0372189126880000E+01    1.9844539343859999E-01   -5.1498896280349999E+00    2.6661910891169999E+01 \
             1.1507715495310000E+01
         A_LIST     2.1801346360420001E+02   -4.2409257583420001E-01    9.9949268450990001E+00   -1.1507715495310000E+01 \
             3.0958394565589998E+02
         &THERMOSTAT_ENERGY
               2.0776480460644852E-03
              -1.7090009072213324E-03
              -2.8233190068663672E-03
               2.1282822927709360E-03
              -9.9496463965669940E-03
               1.4348950866535934E-03
              -2.5011590672656576E-03
              -2.1338987745288013E-03
               5.3770895880398918E-03
               5.0751226902418841E-03
               8.5353407202259438E-03
              -2.9840846058635968E-03
              -3.7245362148227374E-03
              -5.2975053984634602E-03
               3.7055180557167065E-03
              -6.5771324032803322E-03
               4.3331837534409251E-03
              -1.8261279617177925E-03
               2.9422213560413267E-03
               8.1809061196369613E-04
               4.2853583527791006E-03
               4.3672496427912144E-04
              -3.0861533180597971E-03
              -3.0870384996451177E-04
              -4.9716297387777195E-03
              -6.8107885446878937E-03
               2.0628312060114468E-03
               3.3638567480632777E-03
               3.6176261862744035E-04
               1.4949549311818482E-03
              -7.4208872743545843E-03
               1.1071187265459593E-04
               6.9013309764256762E-03
               2.8155480785096222E-03
              -1.2487855711645504E-02
               9.7645511572491718E-03
              -2.4807127370713670E-03
              -4.3166765516981591E-06
               2.1929233682688909E-03
              -6.7033046580191741E-03
               5.9830801194486125E-03
              -4.2240045381624296E-04
               5.6723264949055593E-03
               3.3178914523953468E-03
              -3.2340408572710494E-03
               2.9600999306343954E-03
              -4.7316341411430644E-03
               1.0388389739317276E-03
               4.0886208966945590E-04
              -5.0846940245158605E-03
               4.8990160606665594E-03
              -1.6159445545949802E-03
              -6.8912345937959755E-03
               3.4593267623774860E-04
              -4.2473260512183066E-03
               1.5191860342626520E-03
              -5.5735284117830258E-04
               2.0474827362541915E-03
               1.9696087449788033E-03
               3.2731384868072387E-03
              -3.0529996306859408E-03
               1.7696228032143939E-03
               1.1468255982293903E-02
               3.7418922696403159E-03
               3.0298993814176639E-03
               4.5591326169799121E-03
              -5.6365454057503879E-03
              -6.4217801231969277E-03
               1.9161434801096076E-02
               6.6080345516551934E-03
               6.8099130563438566E-03
               2.2444918542099526E-02
              -1.7574313901108766E-03
              -2.7278800282018473E-03
              -1.7693087331929205E-03
              -1.0140024776711809E-02
               6.6066666139784659E-03
               1.5924895564325490E-03
               6.5290613549162744E-03
              -1.2601893123508321E-03
              -2.0827608244309613E-03
              -1.9177145519044593E-03
               5.8051502312631736E-04
              -7.6091530811314825E-05
               3.5853953209391424E-03
               4.8079573229089833E-03
              -5.6328424033414487E-03
               5.2936009240212197E-03
               5.2247623291499590E-03
              -9.6408034073339564E-03
               2.5377848817014440E-03
              -6.2131669498679959E-03
               4.3149803346890338E-03
              -2.4127130560377017E-03
              -1.0142986073374055E-02
               7.8662254793139819E-03
               7.0253364200995646E-03
               2.1465536120557948E-03
               6.4154545419746762E-03
               4.4783200915071795E-03
              -3.1807989422201685E-03
              -6.8456310220297144E-03
              -1.1723047433399537E-03
              -5.1327047817453005E-03
               2.7460799780419879E-03
              -1.6243215757905964E-03
               7.7313579966846353E-03
               9.4471286789003990E-04
               6.2257237577280295E-03
              -2.4666669231421835E-03
               8.8900444545431155E-04
              -7.8505085650505367E-03
               4.8089998258808702E-03
               8.4053759485474642E-03
               1.1246890372297580E-03
               3.2550949020244187E-04
              -8.2608836901270563E-03
               2.5562319342870869E-03
              -1.8789238130093378E-03
              -2.2280208489027661E-03
              -2.0566682009087816E-03
               2.0173572063997432E-03
              -3.0279954390779985E-04
              -8.7449451143469979E-04
               1.0147079968177023E-04
              -7.2580312294932203E-03
               5.5704142261353683E-03
              -2.3468424364132944E-03
               1.1555091392867740E-03
              -8.8841874561287754E-03
              -5.1614330868972593E-03
               7.9278198295719780E-03
               7.4975585219475363E-04
              -2.8378598569408786E-05
              -5.6302801036197650E-04
               3.4160048338531678E-03
               1.0330207922966449E-03
              -1.5785958771390599E-03
              -9.1817409352939355E-04
              -1.2760633995958452E-02
               1.5431782782642472E-03
               8.3216184459113038E-03
               1.1042789945462697E-02
              -9.2046908422768522E-03
               3.2305753744374215E-04
               3.0376395596989712E-03
               6.9131444548736314E-03
               4.2493386452115665E-03
               4.9171413772950779E-04
              -7.0108009571178478E-03
              -1.1019343487425429E-02
               4.9300360766997633E-03
               4.1829281831473374E-03
               1.3920099519379317E-03
               1.3494589143299254E-03
               4.8269786636102058E-03
               2.9954504276712302E-03
              -6.4280353702242526E-03
               3.0923900890826887E-03
               8.7041457683365662E-03
              -3.4013917759477151E-03
              -3.0764264716073267E-03
              -2.7038054662857175E-04
               1.3401444388589513E-03
               3.8184297306835670E-03
               1.1635993520937667E-02
               6.4051033004101400E-03
              -1.0791863610736542E-02
              -3.0486655088719011E-03
              -2.1836220098279719E-04
              -3.7833108394635652E-04
              -1.7386228122574104E-04
               2.1837754680154296E-03
               1.0637726046877677E-03
               2.4977356293574626E-02
               6.3221041721208716E-03
               3.2829251397421669E-02
              -1.0247392282595835E-03
               3.9757222203134152E-03
               2.2049638504430564E-04
               1.8759568921258398E-03
              -5.7903155140821647E-03
               1.5711185565484231E-02
              -8.6916693050092132E-03
               3.4013412723723081E-04
              -6.0192511721592816E-04
               9.3217054861508136E-03
              -2.2579291631989037E-03
              -5.2195735054777178E-04
              -1.9718510856577432E-03
              -3.0478792164797303E-03
               5.7665188888888878E-03
              -1.7147641285587731E-03
              -1.5203911729696814E-03
               2.0614745435700243E-03
               6.7628672958971250E-03
              -6.7348701797774963E-03
               2.1571399882091024E-03
               4.0083333215282556E-03
              -7.3422377776222528E-03
               4.4446385296925588E-03
               2.2570347735271089E-03
               1.9770998719971233E-03
               4.6984561400372224E-03
              -7.8175136985019194E-03
              -7.1263594213942308E-03
               2.8718928077487811E-03
               7.6081184941169094E-03
              -3.1250629388140149E-03
               9.6758701802137585E-03
              -3.0515308204245822E-03
               1.2456620967599714E-03
               4.4950678901609495E-03
               1.3872422477635646E-03
              -7.5465237189839586E-03
               6.4792054351432813E-04
               1.4483516488671072E-03
               1.7012964761862204E-04
               1.4902896373815777E-03
               4.7348438407692943E-03
               1.8996996329523320E-03
              -1.9106494974811962E-03
              -8.3405565322073431E-03
               2.5281750788396402E-03
               2.7679754679914639E-04
              -8.9972758057440215E-04
               3.6445425330850784E-03
               1.2973292194366401E-03
              -2.6081354333736062E-03
              -1.6558949179062614E-03
              -2.7690705880885178E-03
               4.5687395434790051E-04
               1.0480788261385928E-02
              -3.3376498617847380E-03
              -6.1202915624724288E-03
               1.1967427685815515E-03
              -1.9510826136868848E-03
               4.1723224923991891E-03
              -3.0506369009610452E-03
              -5.8512807501176934E-04
              -1.4761563977635989E-03
               3.6123971724095569E-03
               3.1591855126308034E-03
               2.9538073858643766E-03
              -4.1090970806955734E-03
              -2.8490946517733713E-03
              -3.3352676985411757E-03
               2.1654812891633937E-03
              -2.8503843580141536E-03
              -3.5366080974047134E-04
               2.2680200961651357E-03
               9.0703971365644709E-04
              -3.2207458678795921E-03
              -4.6831784957083004E-03
               1.4165102265046685E-03
              -4.5203909871197549E-03
              -6.1410080552557972E-03
               8.7531035808831748E-04
              -4.0696062858646470E-03
              -1.1673539399601660E-03
               7.8071030088432683E-03
               4.1905487417650883E-03
               8.6192071335061907E-03
               1.2353205822008919E-03
               3.3778937817166652E-03
               3.8339184554146847E-03
               4.8899482746650696E-04
               2.3550986580106624E-03
              -4.8281274512190272E-03
               3.7951736656280993E-03
              -1.9270477233593523E-03
              -5.4715163896065728E-03
              -5.8941118599851929E-04
               1.8444194260481329E-03
              -2.4044556608508500E-03
               1.3976177711627006E-03
              -6.0546807794722738E-03
               6.8366554450897061E-03
               3.1260408310414406E-03
              -3.5120793480073274E-03
               3.0753696068306713E-03
              -6.4263533661980737E-03
               1.9731121050423190E-03
               7.3880952077052895E-03
               1.0169995058083806E-03
               4.2456581601469871E-03
              -1.9277154291228137E-03
              -1.0636810228917331E-03
              -1.0443454865501660E-02
               8.3154048506543943E-03
               1.3642405684993700E-02
               2.7331844751434299E-03
               2.9282934688542174E-03
              -2.3449025396607496E-04
               1.9274768168459945E-03
               3.7970337042788241E-03
              -5.1900082644655097E-03
               8.9215460904901664E-03
              -2.3391567414775402E-03
              -9.1055015259310854E-03
               2.2224135184677148E-03
              -5.4454647175941726E-04
               5.8630061485062295E-03
               8.2433613781139527E-03
               3.7043298846788811E-03
              -6.3924998551240821E-03
              -4.3163377097590111E-03
              -1.2813192160923961E-02
               7.6406236476932272E-03
               9.0807767498729767E-03
              -4.0214318480184856E-05
              -5.1261192156551762E-03
              -6.1927652187453153E-04
               4.9034712610276248E-04
               2.5717765946986697E-03
              -3.1849409433289686E-03
              -5.8289122614073952E-03
               2.0506780552095052E-03
              -5.5522381736994395E-03
              -2.2276820234980645E-03
               5.2106577465424663E-03
              -3.3231660660741889E-03
               4.9694528266278201E-04
              -4.1011183896075718E-03
              -2.1035868530332839E-03
               6.3858679918306557E-03
               6.8837868107645495E-03
               2.3184117675324823E-03
               2.3387258163238274E-03
              -1.3723461137748057E-03
              -7.3392918548361849E-03
              -7.5359177824168102E-04
               5.7809171595041529E-03
              -2.7135758162023411E-03
              -1.7195140510881885E-03
               1.8629916127112865E-03
               3.4786853835634766E-03
               1.2835690389796936E-03
              -6.4311076926405774E-04
               3.2823026823824829E-03
              -6.3305760342643588E-03
              -2.4406382278409178E-03
               6.4866874698719284E-03
               7.3582955456896629E-04
               6.7748479294059997E-03
               4.3896893504869541E-03
               3.1932284412418731E-03
              -5.8194286170454249E-03
               6.4723651834635888E-03
               1.7795749909115157E-03
              -4.4891548621482265E-03
               5.0240020909573168E-03
              -7.4189029459877705E-03
               2.7924836894924112E-03
              -2.5114847884897418E-03
              -3.9421491668198243E-03
               3.6974880226397865E-04
               2.7489369088515392E-03
              -9.0024476355990337E-03
               4.1015543634509450E-03
               6.1243944535436081E-04
               2.3733543022977973E-03
               5.5259435436155217E-03
               3.2900101794216866E-03
              -1.4312651955076610E-03
               2.4374187625387112E-03
               1.8235670715104464E-02
              -3.4992193940983996E-04
              -1.5753322284031319E-02
              -8.4980144983617598E-03
               2.5974913838672973E-03
               1.0269669231746346E-03
               1.5993263027092931E-03
              -1.1439146240044399E-03
              -4.5848297675101066E-04
              -3.2080041162650670E-03
              -9.9317906725468197E-03
              -6.9483192265068546E-03
              -3.3115356164644550E-03
               7.4007377927578222E-03
               5.4479130357089952E-03
              -1.0590835715920044E-03
              -1.0434397588280726E-03
              -2.3283331904018728E-03
              -9.0244109138006325E-03
               4.6755346869381464E-03
              -9.7533642917537020E-04
               4.5755216960036834E-03
              -5.0974792227189807E-03
               8.4038534336799749E-03
              -4.2935706542182404E-03
               3.5080365622248122E-03
              -7.6095474699079256E-04
              -7.6041841369923219E-03
               1.0144414328997571E-02
              -1.4027852690891977E-03
              -1.7820919064773318E-03
               1.4952142994675266E-03
              -2.4568663131044311E-03
              -1.0206767675048120E-04
              -4.6439442071863476E-03
               1.5833637369357806E-03
              -3.1058608622972356E-03
               1.7611602442490057E-03
               2.6406343477872909E-03
               3.8663813625152853E-05
              -1.9561689595183496E-03
              -4.8476047363036218E-04
              -1.3250165293527854E-03
               3.2850792697265881E-03
               6.7971452172546913E-04
              -8.3489579657080324E-04
              -1.8775352392055144E-03
              -3.9074955968826201E-03
               5.8980464443091525E-03
               3.9635893123342106E-03
              -3.0408981235276957E-03
               2.8078138182317206E-04
              -1.7784733720544157E-03
               5.2881798805281903E-04
               3.0444995059539394E-04
              -1.3876533086220428E-03
              -2.1104629507579815E-03
               2.0713067667569064E-03
               1.2240675490514963E-02
              -1.2514226098936092E-03
               1.0487649260292322E-03
              -5.9679598052155159E-03
               4.2210816311781208E-03
               5.1850821256774265E-03
              -1.7879652008146751E-03
              -4.7792168641126046E-03
              -6.3401219961799473E-03
               5.0732262005114535E-04
               7.0122491228486019E-03
               4.9566991941139794E-03
              -2.7682197622491663E-03
              -1.5882009043785305E-03
              -2.2725336602025790E-03
              -1.7034263976995387E-03
               8.2651985163399288E-03
              -2.4482833227742759E-03
               3.0084106753544256E-03
               3.4751206315904054E-03
              -1.1098437306392285E-03
               7.1853657459235373E-03
               6.5648243549270777E-03
               6.6085740475239855E-03
               3.5195877578182381E-03
              -1.2742437180518547E-02
              -2.5697304142949192E-03
              -4.7765019613965256E-03
               7.2637771385545427E-03
              -1.3413270975116643E-03
               1.3784686477705736E-03
              -4.0732176456966538E-03
              -6.3939781150214470E-03
               1.9380125324624728E-03
              -4.1437295004183826E-03
               8.9350804072241470E-04
               9.8089319710834288E-03
               7.1668585370983197E-03
               6.5502477179616087E-04
               7.9287942051251836E-03
               6.6519313790834545E-03
               5.1382865496797329E-03
              -4.3473490286243211E-03
              -4.7982569213313609E-03
              -4.4513399505249213E-04
               3.5287151882083790E-05
               1.1131537600790218E-04
               2.7988587772457922E-04
               1.1397655377333689E-03
              -1.1438488065054014E-03
              -2.1352394749015405E-03
               3.5800718329736018E-03
              -7.4333694950723883E-04
              -1.6136636226487214E-03
               2.2224946832238700E-03
              -1.9913030381476407E-03
              -3.6038265048559288E-03
              -2.9119885041806216E-03
               8.9535176420659900E-04
               1.2280486135557850E-03
               2.9978283737491446E-03
              -3.8898129028108871E-03
               4.8177873145616688E-03
              -8.6939535566828586E-03
               8.9011086133559698E-03
              -7.9868940321733820E-04
               2.6362008128622411E-03
               5.9227019647786292E-03
               2.9941101072210505E-03
              -3.6599216297754649E-03
               1.7397504434314565E-03
               1.9041339801895388E-04
               3.5099593808536060E-03
              -2.5512156887179323E-04
               3.5275744823668603E-03
               3.5008050682538939E-03
              -6.2701841983228029E-04
              -1.3987832888358680E-03
              -1.0968139738520594E-02
               1.9424520311282507E-02
              -1.6810009722957081E-03
              -6.6732651716211889E-03
              -3.8719118234208324E-03
               6.8362121031391825E-03
               4.6176953168556249E-03
               1.6044458631457124E-03
               2.4090539403269096E-03
               2.4238570112201938E-03
              -3.7611977848091955E-03
              -9.1685841167135976E-03
               1.2837198328760091E-02
              -8.3065969739719303E-03
              -5.1990399359924831E-03
               4.1512011042639961E-03
               3.2636167530684782E-03
              -1.3959332455295708E-04
              -1.2506930791847386E-02
               7.6215511062231265E-03
               3.5746123688609023E-03
               1.1108174387876595E-03
               7.6414845410160504E-04
               3.2653867602608667E-03
              -3.3055932182016680E-03
              -2.1029448233242641E-03
               7.0347919940475373E-03
               3.5108756732852024E-04
               7.1424133334801075E-03
               1.9676564380667169E-03
              -3.4782807951299543E-03
              -5.4234615488487599E-03
               3.5720403025750825E-03
              -2.0910185308656664E-04
               1.1561325571036642E-03
              -3.3660412617031433E-03
              -1.0862340725098004E-03
               7.3248392460296434E-03
               9.9356577300539761E-04
              -3.9135865824710386E-03
              -7.3670542691001524E-03
               2.8533838446986115E-03
               2.8439258955725924E-03
               3.1831091636275546E-04
               4.5234841636350503E-03
               8.4309260651248199E-04
               6.4341511122283654E-03
               2.5277815510921608E-03
              -4.8217705645407566E-03
              -4.7082197906431998E-03
               2.5749635418640510E-04
              -2.9231485396834450E-03
              -1.7659326072479720E-03
              -1.8819822597736389E-03
              -4.4844236506217348E-03
              -4.9120722539089719E-03
               8.1993192782746603E-03
               4.8686538626751890E-04
               5.5934104472188956E-03
               3.8067683840339130E-03
              -1.5952517351085136E-03
               5.4645403416022959E-04
              -3.2239210391496486E-03
               8.2095480598369467E-03
              -7.4026823146572732E-03
              -3.0936716636431908E-03
               5.1905685865381674E-03
              -2.4184949447648993E-03
              -3.8691851714563281E-03
              -3.2173429303516835E-03
              -1.5519353570766531E-03
              -2.3550724247743738E-03
               1.3947401389163257E-03
               2.3760718357875646E-03
               6.2756643871994915E-03
               8.1713220276467720E-03
              -8.2308492471874113E-03
         &END THERMOSTAT_ENERGY
         &RNG_INIT
Wiener process for Thermostat # 1        1 F T T  -9.8236738167888460E-01         226733040.0        4248387519.0        1164353849.0        2758509449.0        3644127687.0        1764793484.0             12345.0             12345.0             12345.0             12345.0             12345.0             12345.0             12345.0             12345.0             12345.0             12345.0             12345.0             12345.0
Wiener process for Thermostat # 2        1 F T T  -1.4171306107827426E+00        1528154308.0        2775625301.0         197130159.0        1452211673.0        1835562137.0        1983376171.0        3692455944.0        1366884236.0        2968912127.0         335948734.0        4161675175.0         475798818.0        3692455944.0        1366884236.0        2968912127.0         335948734.0        4161675175.0         475798818.0
Wiener process for Thermostat # 3        1 F T T   8.6049543281786645E-01        2248570378.0        1724762616.0          52903713.0        3229622658.0        3199004837.0        4241126217.0        1015873554.0        1310354410.0        2249465273.0         994084013.0        2912484720.0        3876682925.0        1015873554.0        1310354410.0        2249465273.0         994084013.0        2912484720.0        3876682925.0
Wiener process for Thermostat # 4        1 F T T  -1.5460863137690717E+00         957380376.0         510326667.0        2247033635.0        2033071685.0        3054261466.0        3462352516.0        2338701263.0        1119171942.0        2570676563.0         317077452.0        3194180850.0         618832124.0        2338701263.0        1119171942.0        2570676563.0         317077452.0        3194180850.0         618832124.0
Wiener process for Thermostat # 5        1 F T T   1.5428690481661575E-01        4203301200.0         738999836.0        1485820986.0          20648636.0        2223680357.0        4294941489.0        1597262096.0        3906379055.0        3312112953.0        1016013135.0        4099474108.0         275305423.0        1597262096.0        3906379055.0        3312112953.0        1016013135.0        4099474108.0         275305423.0
Wiener process for Thermostat # 6        1 F T T   7.0411917217518150E-01        1265311014.0        3687607523.0        1792102642.0         142025920.0         459804801.0        1211121065.0          97147054.0        3131372450.0         829345164.0        3691032523.0        3006063034.0        4259826321.0          97147054.0        3131372450.0         829345164.0        3691032523.0        3006063034.0        4259826321.0
Wiener process for Thermostat # 7        1 F T T  -9.5744195640119531E-02        4040223344.0        4246262317.0         329086624.0          28777921.0        2946509694.0        1489700490.0         796079799.0        2105258207.0         955365076.0        2923159030.0        4116632677.0        3067683584.0         796079799.0        2105258207.0         955365076.0        2923159030.0        4116632677.0        3067683584.0
Wiener process for Thermostat # 8        1 F T T  -1.2413826789147817E-01         252045112.0        2848200345.0         154646410.0        1271924195.0        1873079261.0        3351978939.0        3281794178.0        2616230133.0        1457051261.0        2762791137.0        2480527362.0        2282316169.0        3281794178.0        2616230133.0        1457051261.0        2762791137.0        2480527362.0        2282316169.0
Wiener process for Thermostat # 9        1 F T T   1.0331244080464512E+00        3784506675.0        1914172684.0        3527875272.0        1610827989.0        3855196701.0        1117597481.0        3777646647.0        1837464056.0        4204654757.0         664239048.0        4190510072.0        2959195122.0        3777646647.0        1837464056.0        4204654757.0         664239048.0        4190510072.0        2959195122.0
Wiener process for Thermostat # 10       1 F T T   2.1466585360569199E-01        3057685686.0        2869029583.0         411221469.0        2821893460.0         322924656.0        1143227575.0        4215590817.0        3862461878.0        1087200967.0        1544910132.0         936383720.0        1611370123.0        4215590817.0        3862461878.0        1087200967.0        1544910132.0         936383720.0        1611370123.0
Wiener process for Thermostat # 11       1 F T T  -4.4132046785776799E-02        1554543736.0        2717576499.0        4135075403.0        2618383353.0         642871762.0         249586537.0        1683636369.0         362165168.0         814316280.0         869382050.0         980203903.0        2062101717.0        1683636369.0         362165168.0         814316280.0         869382050.0         980203903.0        2062101717.0
Wiener process for Thermostat # 12       1 F T T  -5.6161533877704317E-01        1770324141.0        3770017049.0         190859559.0         764828178.0        2918138424.0         736540625.0         272317999.0         166758548.0         310112982.0         201045826.0        1680231254.0         118290799.0         272317999.0         166758548.0         310112982.0         201045826.0        1680231254.0         118290799.0
Wiener process for Thermostat # 13       1 F T T   9.7554409384929153E-01        3627045108.0        1898589428.0        2752141753.0          85759421.0        2499273175.0        1137986601.0        2245755202.0        1652682525.0        2865544364.0         721509566.0         209733568.0         592362218.0        2245755202.0        1652682525.0        2865544364.0         721509566.0         209733568.0         592362218.0