 # Version information for this restart file 
 # current date 2022-11-29 19:42:36.847
 # current working dir /home/yx2892/comp-lab-class/Week12/Runs/Proton
 # Program compiled at                              Sat Dec 12 18:27:15 EST 2020
 # Program compiled on                                         cs001.nyu.cluster
 # Program compiled for                                                nyu-intel
 # Source code revision number                                       git:8c64c6e
 &GLOBAL
   PRINT_LEVEL  LOW
   PROJECT_NAME proton_aimd_1ns_every0.5fs
   RUN_TYPE  MD
   WALLTIME 21600
 &END GLOBAL
 &MOTION
   &GEO_OPT
     OPTIMIZER  BFGS
     MAX_ITER  100
     MAX_DR     3.0000000000000001E-03
     &BFGS
     &END BFGS
   &END GEO_OPT
   &MD
     ENSEMBLE  NVT
     STEPS  2000000
     TIMESTEP     4.9999999999999994E-01
     STEP_START_VAL  1584
     TIME_START_VAL     7.9200000000000944E+02
     ECONS_START_VAL    -1.1027288227596132E+03
     TEMPERATURE     3.0000000000000000E+02
     &THERMOSTAT
       TYPE  GLE
       REGION  MASSIVE
       &GLE
         NDIM  5
         A_SCALE     1.0000000000000000E+00
         A_LIST     1.8595758612559999E+02    2.7263853498399998E-01    1.1526100454610001E+01   -3.6414578262600003E+01 \
             2.3173375816020001E+02
         A_LIST    -2.7809524712060002E-01    8.5951591808710006E-05    7.2189048017650004E-01   -1.9844539343859999E-01 \
             4.2409257583420001E-01
         A_LIST    -1.4825808131210000E+01   -7.2189048017650004E-01    1.3590902121280000E+00    5.1498896280349999E+00 \
            -9.9949268450990001E+00
         A_LIST    -1.0372189126880000E+01    1.9844539343859999E-01   -5.1498896280349999E+00    2.6661910891169999E+01 \
             1.1507715495310000E+01
         A_LIST     2.1801346360420001E+02   -4.2409257583420001E-01    9.9949268450990001E+00   -1.1507715495310000E+01 \
             3.0958394565589998E+02
         &THERMOSTAT_ENERGY
               2.9736504817929532E-03
              -1.4732981666276252E-03
              -1.8039064995023031E-03
               3.2659954414885040E-03
              -1.8546681634876171E-02
               1.2864349320848042E-03
              -6.2018517555129304E-03
              -1.5251219820125511E-03
               1.7113908931619527E-03
               2.9872425585414659E-03
               6.9004777111699705E-03
              -3.9828156140862209E-03
              -1.5205340034751462E-03
              -7.9229105825276112E-03
               7.5961126271674433E-03
              -5.5299961194553741E-03
               5.3208191579278610E-03
               2.0128987675316597E-03
               3.3586176764852003E-03
              -3.4379378309955569E-04
               4.4682429575146239E-03
              -7.6032454703775141E-04
              -1.6765811624889016E-03
              -5.7505025480625001E-03
              -3.2028068055036706E-03
              -8.4153023192826467E-03
               1.5413055168427350E-03
               4.5166951681516345E-04
              -9.5608121273274300E-04
               4.8539090661076654E-03
              -3.3827440125525289E-03
              -6.1563485633978603E-03
               1.1472873415937100E-02
               1.3506055862654890E-03
              -1.0704015136718825E-02
               1.3594717807138869E-02
              -9.8396649349988003E-04
              -6.0280862725641399E-03
               2.7041728551326907E-03
              -1.5640155427409247E-04
               4.3893180409734396E-03
              -1.6641991809095757E-04
               7.9543214404102260E-03
               4.0176827568694784E-03
              -6.2031359663958273E-04
               5.6155369695652839E-03
              -4.5970702628927518E-03
               2.9968348411978005E-03
               1.6784460998170152E-03
               6.2285675129816198E-03
               1.6163161809993310E-03
               6.9074526771392896E-03
              -1.1527091914831316E-02
              -2.5072827320730116E-03
              -5.4562298722469673E-03
               2.5789523266632349E-03
               7.9200294844141881E-04
               1.7846885712545859E-03
               4.9452042938475660E-03
               2.1748891521213964E-04
              -5.7021455212365900E-03
              -4.0738193715029684E-03
               1.6729194894371833E-02
               2.9470026487156270E-03
               1.8558160700081526E-03
               7.3312646677844463E-03
              -9.8782418677332423E-04
              -5.6820988609461980E-03
               8.5280869916672421E-03
               7.6389098529229234E-03
               3.9907993370144603E-03
               2.3986660252967352E-02
              -4.5157283218035709E-04
               1.2975879005422739E-04
               6.6437420216615981E-05
              -1.2420079286053001E-02
               3.8257230383032395E-03
               3.1856293828374902E-03
               4.6621175744518311E-03
               1.6273868965291731E-03
              -1.1570013949971176E-03
              -5.5419683132728204E-03
               1.3921808157534112E-03
               8.3213032807706567E-04
               5.9055195166284758E-03
               4.2981240098216907E-03
              -1.7457800879425228E-03
               2.8652088931135754E-03
               6.0058148327910852E-03
              -9.7798307496023921E-03
               8.1102436551858093E-04
              -6.3268350277385210E-03
               2.2498224925244234E-03
              -4.7290750584569954E-03
              -5.2161634824724025E-03
               5.0813022822423261E-03
               8.5079593390689212E-03
              -4.2468422215893967E-04
               9.1271965424892902E-03
               8.3185003980823964E-03
              -7.6373797418641766E-03
              -3.2723775083983437E-03
              -1.6714078072492583E-03
               2.6865825347939841E-03
              -1.0651062447053716E-02
               6.2711712929133427E-03
               7.3448907127361242E-03
              -4.3861861931057521E-03
               8.6789948930575678E-03
              -1.7717974683164213E-03
               3.0585471767914462E-04
              -3.7144621578316548E-03
               8.1361495249160469E-03
               8.8746971522978522E-04
               3.9631490574716707E-03
               1.7385752142500791E-04
              -8.0073637599839161E-03
               2.4079257676080431E-03
              -3.2929771203634204E-04
               1.4413070473796359E-04
              -5.5268548336654311E-04
               1.8159452881185906E-03
               1.6080021332083173E-03
              -3.0266848455833628E-03
               9.3031874838583786E-04
              -7.2952074087705154E-03
               7.3260105009425426E-03
              -2.0270500871669593E-03
               4.1048036300666340E-03
               5.3147491406148242E-04
              -6.7489927559036683E-03
               6.3218589920440967E-03
              -2.6119313616161433E-03
              -5.3017587487592475E-03
               3.8723266332911970E-03
               2.3313331841909209E-03
               1.4774011492556583E-03
              -1.0773960885413756E-03
              -1.8325418659461169E-03
              -8.1795348509032112E-03
              -7.4276159093513965E-03
               2.0010187044041557E-02
               1.4029353696024103E-02
              -9.6678352038360900E-03
               6.8639222093748861E-03
              -6.1672781557837899E-05
               9.0141446067495742E-03
               7.1132025775056344E-03
              -3.6066373867629363E-04
              -9.4779190909880899E-03
              -2.0426233240768848E-02
               7.3002688341460582E-03
               5.9049966656750290E-03
               1.8280405242716955E-03
               7.3301209137215150E-03
               4.4411268452690424E-03
              -2.4731249629576838E-03
              -4.6001533561146526E-03
               3.4080534657309723E-03
               5.1671872496797380E-03
              -2.9332658678924144E-04
              -7.8519837354184083E-03
              -2.5385990719171158E-03
               1.1600301386390371E-03
               6.9677472954609394E-03
               2.2810644867200573E-02
              -1.3622455370587052E-03
              -1.8640154624383256E-02
              -1.0696673097546842E-04
               1.1537446333258876E-03
              -5.6957883830642108E-04
               3.3596486977801768E-03
               1.2746960087724136E-03
              -5.1131041638119348E-04
               2.0610909453862767E-02
               7.1273923539416752E-03
               3.4487811632379746E-02
               1.2376399543102701E-03
               4.8231396237577075E-03
              -8.5166762476160827E-05
               3.4806929592381742E-03
              -1.9025723105606174E-02
               2.9355566929838948E-02
              -5.8794387019821849E-03
              -5.2761472942741998E-04
               8.7769419129206665E-04
               1.4959167288406176E-02
              -4.3953176584820763E-03
              -4.8885779068258868E-03
               2.2577500096337801E-03
              -7.6071337908458084E-03
               6.4914882041302632E-03
               5.5813396076252898E-03
               5.0689445205711380E-03
               2.1920065424436497E-03
               8.0467088072725349E-03
              -1.3582329498109797E-02
               7.1696242736328194E-04
              -2.2516073837343794E-03
              -1.7293429284355678E-03
               6.8174109246641494E-03
               1.0887272326976373E-03
               1.3756117067512048E-03
               5.7064380407845210E-03
              -8.8249196625638446E-03
              -7.5525292708956823E-03
               4.1381144526987422E-03
              -1.6411672701252961E-03
              -3.7697149112034469E-03
               1.7336104089460406E-02
              -5.3729657485093825E-03
              -4.3744167068901041E-04
              -6.8719793379461353E-04
               9.1426136493611809E-04
              -6.1438952605504709E-03
               7.8150584106020712E-03
              -1.2369728669572654E-05
               4.1420162615517236E-04
              -3.2654124543793411E-03
               3.0643544142505866E-03
              -4.0489481172107798E-04
              -3.0637637070578183E-03
              -1.3390345508832795E-02
               2.4480858580189424E-03
              -2.5470240952699726E-05
              -7.7170670533369731E-03
              -2.3494198089154721E-03
               5.4563006457782511E-03
              -2.4297729880164588E-03
               6.7936178677019258E-04
              -1.8338201272820591E-03
               1.6149042619459453E-03
               1.0664831149084982E-02
              -4.5857839795198207E-03
              -1.2629428652218605E-03
              -4.1843296467249519E-03
              -9.3206245621821737E-03
               2.6946620554153806E-03
              -1.2335385213809850E-03
               5.2487749222171021E-04
               3.0357733172315026E-03
               9.2036416465103021E-03
               2.4291609969516468E-03
              -5.2612917684142614E-03
               1.5056271542660963E-03
              -5.1496067110870609E-03
              -1.0740837245789300E-03
               1.1288237448347882E-03
              -1.3155761425179958E-03
              -1.9469030725270979E-03
               5.0164712420030433E-03
               1.7693859072323207E-04
              -7.3758267020717846E-03
              -6.2386983485053565E-03
               5.2516893105257166E-03
              -3.8240827648622407E-03
              -4.6967640101341079E-03
               4.1252994160829526E-03
              -8.1408999866883925E-03
              -1.4650000813159572E-03
               1.2274584060360567E-02
               6.0015661072248764E-03
               4.8711459344919520E-03
              -9.1368816651996553E-04
               3.6524500259380675E-03
              -8.1105073004327302E-04
              -9.6914263047150452E-04
              -1.7375093586423098E-03
              -9.4669589509683726E-04
               4.7705729289049545E-03
               1.5002787025790850E-03
              -5.9759320581285079E-03
              -1.2629697104250201E-03
               4.6222992939620559E-03
               1.1752794054134099E-03
              -1.0690374857222447E-03
              -1.4579749190805657E-02
               1.2674195578964802E-02
               5.3948283807653021E-03
              -1.0679274031303490E-02
               2.8024711189255703E-03
              -1.2460958213987056E-03
               3.8557913944212178E-03
               1.2890767551869077E-02
              -3.8019620444565611E-04
               2.1430310858291165E-03
              -5.0148061081469984E-03
              -5.7946666044967560E-03
              -1.4867661531323639E-02
              -2.4344044984585251E-03
               2.0865863465500199E-02
               4.8610303621517907E-04
              -5.5393181660516174E-03
              -5.0133528984425118E-03
               3.8451195643936513E-03
               7.8658553807833907E-03
              -2.0093149195540456E-03
               1.3989978368031676E-02
               4.6834498003241144E-03
              -1.3383039294678581E-02
               5.6204562214526004E-03
              -2.0855167515150749E-03
               3.9028642329104971E-03
               1.4697585551720467E-02
               3.2608469613771402E-03
              -9.7970642807532933E-03
              -5.9894620397938705E-03
              -8.6609938384663507E-03
               1.3101603366151246E-02
               8.9767032955515615E-03
              -9.2885326544615507E-04
              -2.6112958986947050E-03
               4.9347623787263182E-03
              -5.7299099727751435E-03
               2.8470473857022372E-03
              -2.6870373715130059E-03
              -4.4314506828138506E-03
               2.0406565523371591E-03
              -1.2707448126935271E-02
              -4.9404965703294364E-03
               1.8300567018445929E-03
               5.5300281285965399E-03
               2.8190162811698020E-03
              -2.4041169973787807E-03
              -8.2462306054353254E-03
               1.4507928168944745E-02
               7.0147073809805997E-03
              -8.1009284852413713E-04
               1.9683548640623730E-04
               1.1359499530437087E-03
              -8.5644664044926544E-03
               4.3664525414838663E-03
               4.2213073161509497E-03
              -3.0202531149708541E-03
               6.2285583974926780E-04
              -2.5556240808902314E-03
               1.3369223337914870E-03
               2.5384860441929101E-03
               4.3362259383442482E-04
               5.1363281979473225E-03
              -9.3557178141818222E-03
              -8.6837689211519565E-03
               1.3603723730900687E-03
               7.9905858285198566E-03
               7.9858196908394984E-03
               3.4854091418678795E-03
               3.2181047547306689E-03
              -1.0316775732501057E-02
               8.8519246155445951E-03
               1.9846620538755588E-03
              -6.0052203218799787E-03
               1.2091649632423436E-02
              -1.3247873765747880E-02
               1.6885699856877671E-03
               7.6676509922297812E-04
              -1.4566473591761224E-03
               1.4805355835662824E-03
              -1.3594789041380156E-02
              -5.7990090222997436E-03
              -4.9669929463704975E-04
              -3.4263590845216799E-03
              -4.6304793531105334E-04
               1.6921084778035448E-02
               4.2543736129703937E-03
              -4.7244319802678004E-03
               1.1231814188935728E-03
               1.2063031985556114E-02
               1.8955341210985120E-03
              -1.2312610328252939E-02
              -1.4037701939433928E-02
               2.2786079152239428E-03
               6.7005229175051964E-03
               1.9544202807645593E-03
              -4.1431444720805280E-03
               1.3097563081907490E-03
               3.7392399519521882E-03
              -1.7137314471668028E-02
              -1.5998123162045210E-02
               3.6302549513584515E-03
               7.1286529063820823E-03
               7.0614065871515358E-03
               6.4284104558326761E-03
              -3.9069862593356613E-04
              -2.2877675925438538E-03
              -2.0233484217958772E-02
               5.1127072516994184E-03
               5.5743701463803821E-03
               6.7452573942114388E-03
              -9.1004177127498029E-04
               5.0595246381088038E-04
              -6.3398207052082559E-03
               1.7494953939602468E-03
               3.2578753257229776E-03
              -3.9558140125465231E-03
               7.9814088844009229E-03
              -2.4138678098405047E-04
              -4.2114726000846764E-04
               1.4088774354296338E-03
              -4.8417342174448281E-03
               1.4374770003346474E-04
              -1.6402422891752927E-03
               7.7836575148013450E-03
              -4.7766903069791002E-03
              -5.7502916301519413E-03
              -3.5375970809723100E-03
              -1.9417157842142739E-03
              -4.9179494066608617E-03
               1.3237126614958294E-03
              -9.8525506610410915E-04
               5.3564006599352322E-03
              -2.2270331605550790E-03
              -4.0750928156788021E-03
               2.1164153168948068E-03
              -7.7026709663296344E-03
               7.6032350049068040E-04
               9.3030278743309307E-03
               9.7290945842019481E-04
               9.7380069792587609E-05
              -1.1581540640277067E-03
              -6.9375862639562335E-04
              -3.1815488615480037E-03
               3.3626475765534780E-03
              -4.1832363007922712E-03
               3.0447633315090748E-03
               1.6265936986638727E-02
              -1.5340417460464012E-03
               3.2950737704303618E-03
              -3.5618426122148547E-03
               4.3272874670310857E-03
               2.0937994888668991E-03
              -2.6483606050379201E-03
              -7.0112358789036627E-03
              -1.0487869014154003E-02
               5.6606342236541129E-03
               1.0990673419617495E-02
               4.8745330794820090E-03
              -5.0599791479554179E-03
              -2.8665112216750362E-04
              -4.3273604427660128E-03
              -5.8421922588631492E-03
               9.8859997196395853E-03
              -7.7035478115690609E-03
              -6.2332846963962843E-04
               1.5677121533700603E-02
               6.8221057941460607E-04
               5.8244614776841860E-03
               8.8262739301741017E-03
               1.0291788764976086E-02
               3.1775713081720908E-03
              -1.6507722518824923E-02
              -4.5044110703856138E-03
              -6.3327947525073534E-03
               6.7695799304626899E-03
              -2.4673822533912966E-04
               1.4919500485840382E-03
              -8.5570200374785518E-03
              -1.0336694389103770E-02
              -9.4786121782881015E-04
              -3.8090371446430002E-03
               5.0414503144109871E-03
               1.1512540308588993E-02
               6.9940582993125271E-03
               5.0748148431479911E-03
               9.9477560890313087E-03
               5.7034281974954028E-03
               4.1349727800040975E-03
              -1.3468067719703379E-02
              -1.9790136596171859E-03
               8.5967676305961169E-03
              -2.9194470605785716E-03
               2.7055913583824381E-03
               9.9847726344937495E-04
               2.6707135157013788E-04
               1.0868968060130629E-03
              -2.1269598738805091E-03
               4.7494668155098627E-03
              -4.2576522990067482E-04
               3.7542953053546360E-03
               3.8482880909044529E-03
              -8.5697405974378901E-03
              -1.8002767958660345E-03
              -4.4785470629046496E-03
               1.1001271269026100E-03
              -1.2937972442184256E-03
               3.3424162876756910E-03
              -4.9220076862420761E-03
               7.7501830992709429E-03
              -6.9889927291668904E-03
               1.0508251078807266E-02
              -1.3248123196343538E-03
               1.8996990650555065E-03
               3.8548654755306308E-03
               2.4660451739616294E-03
              -6.6238542066060944E-03
              -5.3088641016746255E-04
              -3.2346366573829956E-03
              -5.0558364896354045E-04
               2.0633860888713907E-03
               1.4583345446454643E-03
               5.9841692654755566E-03
               1.9661817686676495E-03
               1.0028602335411885E-03
              -1.0246270319025688E-02
               1.1014983807470010E-02
               3.3386160197228761E-03
              -9.6619092637852660E-03
              -4.9336627489352889E-03
               2.7014418498798173E-03
               9.3986186267775874E-03
               2.8690172686719260E-03
              -3.1498067741268453E-03
               6.5324380658926279E-03
              -4.7078204755222577E-04
              -8.7003223645757896E-03
               1.3774204045316275E-02
              -2.0898108185465936E-02
              -5.6613602716430273E-03
               6.7617897880642118E-03
               6.2901821587928999E-03
               8.4345211857609595E-04
              -1.3016652012659944E-02
               5.1442034974136831E-03
               4.6040119399881653E-03
               7.2651632727513508E-03
              -5.4415376126775994E-03
               3.7844358622881056E-03
              -6.6023874271029064E-03
              -4.1151626271925786E-03
               7.2599807842027506E-03
              -1.2606186355619135E-03
               8.6103739906714764E-03
               9.7382655954150760E-03
              -8.3993517905217464E-03
              -1.0743488711556299E-02
               4.3817130351421897E-04
               1.8658545172597150E-03
              -1.8771971743687400E-04
              -4.1296822569712854E-03
              -9.9158707038581474E-04
               1.2018862513546863E-02
               9.7514438072883957E-04
              -6.7165579454689451E-03
              -5.2268738215845000E-03
               1.3696767596896968E-03
               2.2759511257633529E-03
              -1.2197433330298300E-03
               2.7014513674020993E-03
               2.3289352704981849E-03
               5.4868153343785491E-03
               9.3953452836010171E-03
              -9.0306351354660485E-03
              -2.2233558747621071E-03
               2.4712281647491465E-05
              -3.9978362041151062E-03
               1.6557876635335284E-03
               3.2455737002645086E-03
              -2.0333751377074258E-03
              -3.0385180659077944E-03
               1.2845876904312199E-02
              -9.6636689588771164E-04
               8.5458299579151587E-05
               3.8271129751337569E-03
              -5.4218776825573016E-04
              -6.1148115161362929E-04
              -1.3562488302801884E-03
               1.0818122880813897E-02
               4.0687692336185367E-03
              -3.0693340410427442E-03
               7.4837479353714507E-04
              -1.7579792709930078E-03
              -4.6714862859041674E-03
              -3.0508693516364538E-03
              -4.1078321508372555E-03
              -6.5906360030281927E-03
               8.9424857300998018E-03
               4.6181983769865674E-03
               9.8743534078331897E-03
               1.0655185565319062E-03
              -8.1938387296228762E-03
         &END THERMOSTAT_ENERGY
         &RNG_INIT
Wiener process for Thermostat # 1        1 F T T   9.4525752042767630E-01        1131472813.0        3580273064.0         539736262.0        1402100554.0          41964020.0        3329268074.0             12345.0             12345.0             12345.0             12345.0             12345.0             12345.0             12345.0             12345.0             12345.0             12345.0             12345.0             12345.0
Wiener process for Thermostat # 2        1 F T T  -7.5206526980690014E-01        2985797825.0        2886666223.0        3750304582.0        1944448365.0        2463157669.0        2477687697.0        3692455944.0        1366884236.0        2968912127.0         335948734.0        4161675175.0         475798818.0        3692455944.0        1366884236.0        2968912127.0         335948734.0        4161675175.0         475798818.0
Wiener process for Thermostat # 3        1 F T T   8.8882103986497929E-01        3527119146.0         662005048.0        2531289970.0        3939165387.0        2609571325.0         888067965.0        1015873554.0        1310354410.0        2249465273.0         994084013.0        2912484720.0        3876682925.0        1015873554.0        1310354410.0        2249465273.0         994084013.0        2912484720.0        3876682925.0
Wiener process for Thermostat # 4        1 F T T   2.3808073963036697E-01         679841623.0        2562735457.0        1811356133.0        1715883492.0        3695169905.0        4049871230.0        2338701263.0        1119171942.0        2570676563.0         317077452.0        3194180850.0         618832124.0        2338701263.0        1119171942.0        2570676563.0         317077452.0        3194180850.0         618832124.0
Wiener process for Thermostat # 5        1 F T T  -1.1262208390431516E-01        2179648702.0         765462399.0        4267803513.0        2407565375.0        3012661168.0        2653520783.0        1597262096.0        3906379055.0        3312112953.0        1016013135.0        4099474108.0         275305423.0        1597262096.0        3906379055.0        3312112953.0        1016013135.0        4099474108.0         275305423.0
Wiener process for Thermostat # 6        1 F T T  -6.0644583439267583E-02        2922813643.0        2368585124.0         524733294.0        1155412120.0         367789127.0        2707237480.0          97147054.0        3131372450.0         829345164.0        3691032523.0        3006063034.0        4259826321.0          97147054.0        3131372450.0         829345164.0        3691032523.0        3006063034.0        4259826321.0
Wiener process for Thermostat # 7        1 F T T   3.5060840624591638E-01        1519878176.0        1740745834.0        2262439741.0         691395091.0        3623101781.0         708890616.0         796079799.0        2105258207.0         955365076.0        2923159030.0        4116632677.0        3067683584.0         796079799.0        2105258207.0         955365076.0        2923159030.0        4116632677.0        3067683584.0
Wiener process for Thermostat # 8        1 F T T   3.6353661677550309E-01        2464833211.0        1581995540.0         396676909.0         902303906.0        3518516622.0        2696453429.0        3281794178.0        2616230133.0        1457051261.0        2762791137.0        2480527362.0        2282316169.0        3281794178.0        2616230133.0        1457051261.0        2762791137.0        2480527362.0        2282316169.0
Wiener process for Thermostat # 9        1 F T T   1.6669574490840138E+00        1612991698.0        2530853565.0        1734187022.0        4069349862.0        3606517354.0        2446865153.0        3777646647.0        1837464056.0        4204654757.0         664239048.0        4190510072.0        2959195122.0        3777646647.0        1837464056.0        4204654757.0         664239048.0        4190510072.0        2959195122.0
Wiener process for Thermostat # 10       1 F T T   1.1703094097530124E-01        4103283566.0        2466281256.0        1560255297.0        4196828686.0        4099549732.0        2712286329.0        4215590817.0        3862461878.0        1087200967.0        1544910132.0         936383720.0        1611370123.0        4215590817.0        3862461878.0        1087200967.0        1544910132.0         936383720.0        1611370123.0
Wiener process for Thermostat # 11       1 F T T   8.3042247214180631E-01        2454113928.0        2508086773.0         224247706.0        2856589206.0        2861725189.0        3232862333.0        1683636369.0         362165168.0         814316280.0         869382050.0         980203903.0        2062101717.0        1683636369.0         362165168.0         814316280.0         869382050.0         980203903.0        2062101717.0
Wiener process for Thermostat # 12       1 F T T   1.8334559880224452E+00        3488790967.0        1534236743.0        3973807974.0        3243944782.0        3089235966.0         907610943.0         272317999.0         166758548.0         310112982.0         201045826.0        1680231254.0         118290799.0         272317999.0         166758548.0         310112982.0         201045826.0        1680231254.0         118290799.0
Wiener process for Thermostat # 13       1 F T T   3.2701332277502597E-02         661705986.0        3216106023.0         858588939.0        1811849467.0         778266018.0        3833595884.0        2245755202.0        1652682525.0        2865544364.0         721509566.0         209733568.0         592362218.0        2245755202.0        1652682525.0        2865544364.0         721509566.0         209733568.0         592362218.0