 # Version information for this restart file 
 # current date 2022-11-29 18:54:19.633
 # current working dir /home/yx2892/comp-lab-class/Week12/Runs/water_new
 # Program compiled at                              Sat Dec 12 18:27:15 EST 2020
 # Program compiled on                                         cs001.nyu.cluster
 # Program compiled for                                                nyu-intel
 # Source code revision number                                       git:8c64c6e
 &GLOBAL
   PRINT_LEVEL  LOW
   PROJECT_NAME water_aimd_1ns_every0.5fs
   RUN_TYPE  MD
   WALLTIME 21600
 &END GLOBAL
 &MOTION
   &GEO_OPT
     OPTIMIZER  BFGS
     MAX_ITER  100
     MAX_DR     3.0000000000000001E-03
     &BFGS
     &END BFGS
   &END GEO_OPT
   &MD
     ENSEMBLE  NVT
     STEPS  2000000
     TIMESTEP     4.9999999999999994E-01
     STEP_START_VAL  1586
     TIME_START_VAL     7.9300000000000944E+02
     ECONS_START_VAL    -1.1023558357480233E+03
     TEMPERATURE     3.0000000000000000E+02
     &THERMOSTAT
       TYPE  GLE
       REGION  MASSIVE
       &GLE
         NDIM  5
         A_SCALE     1.0000000000000000E+00
         A_LIST     1.8595758612559999E+02    2.7263853498399998E-01    1.1526100454610001E+01   -3.6414578262600003E+01 \
             2.3173375816020001E+02
         A_LIST    -2.7809524712060002E-01    8.5951591808710006E-05    7.2189048017650004E-01   -1.9844539343859999E-01 \
             4.2409257583420001E-01
         A_LIST    -1.4825808131210000E+01   -7.2189048017650004E-01    1.3590902121280000E+00    5.1498896280349999E+00 \
            -9.9949268450990001E+00
         A_LIST    -1.0372189126880000E+01    1.9844539343859999E-01   -5.1498896280349999E+00    2.6661910891169999E+01 \
             1.1507715495310000E+01
         A_LIST     2.1801346360420001E+02   -4.2409257583420001E-01    9.9949268450990001E+00   -1.1507715495310000E+01 \
             3.0958394565589998E+02
         &THERMOSTAT_ENERGY
              -4.6649331993409253E-03
              -1.2705731810092017E-03
              -3.4214049815657244E-03
               6.8950603534747900E-03
              -9.5634352922126294E-03
               4.7261408746558159E-03
               3.2397716760175022E-03
              -1.1746824413639521E-02
               1.4768625437354096E-02
               4.2588707910147135E-03
               1.0173529013757624E-02
              -3.0636149496347173E-03
              -6.7017709618511509E-04
              -9.5695979990348661E-03
               1.8681971349747009E-03
              -6.0399811263795820E-03
               1.6442581509967497E-02
               6.6828437526563389E-04
               8.6475152115052557E-03
              -8.3804319549369930E-03
               2.1396966631721270E-03
               6.2420501442363803E-04
              -2.1921784555717339E-03
              -1.0618051027808679E-03
              -3.1971088646852394E-03
              -1.4501506106334727E-04
               1.2545352667115580E-03
              -4.1642675756201959E-04
               1.2498778914475914E-02
               1.8532059387988656E-03
               2.4242373870460928E-03
              -3.5102457540087434E-03
              -1.0785109935041956E-04
               1.1039407048721889E-03
              -1.5613473781800637E-02
               1.6556527720136185E-02
              -1.1588383720698722E-03
              -2.7335141157835258E-03
              -1.0602643824905536E-03
               6.3796105398403026E-03
              -9.1405029535901183E-03
              -8.0863007033399185E-04
               4.6324947813630160E-03
               4.5617804344839407E-03
              -2.3291943472746567E-03
               2.8650620849647408E-03
              -1.2447882255697690E-03
               4.9023223602571867E-03
               9.8634097085072690E-04
               1.7078013845211108E-03
              -6.3208627984941298E-04
              -1.4484224327807651E-04
              -4.4045233546976962E-03
               1.7199202520100550E-03
              -6.7409521284192836E-03
               5.4849366599518425E-03
              -2.6151095377183256E-03
               1.3053675860204424E-04
               2.2163610597094006E-03
               1.1498121323768529E-02
               1.1289893124545548E-03
              -1.2671678389122580E-02
               1.8136956762144222E-02
              -3.0098884629248274E-03
               2.7872808717114826E-03
               1.0145540652154014E-03
              -1.1024975796245284E-02
               3.2653013660239069E-03
               2.0852050575320951E-02
               3.6862665452979657E-03
              -4.4707895723926697E-04
              -1.3487858066884673E-02
              -9.9844181156399643E-04
               3.5359390869095335E-05
              -3.7666181077663293E-04
              -1.3266850503238271E-02
               3.7049463003862053E-03
               3.5496713813522934E-03
               1.0227256569232387E-02
              -1.2212915723980835E-02
               1.9722217771144947E-02
              -4.4729737487532745E-03
               1.3315711488946418E-03
              -1.4940352808326283E-03
               1.1311150479443510E-03
               8.5200807267546627E-03
               1.5908936463607446E-03
              -5.5229394051131619E-03
               2.6283623474096548E-03
               1.7106401138145557E-03
               8.5192316581611587E-05
              -9.2940961142703709E-03
               4.2479062260355176E-03
              -5.3957649759876674E-03
              -8.9141349857677823E-03
               7.3009357088919700E-03
               8.8697695870734224E-03
              -1.1267195982823902E-03
               3.3252538630904687E-03
               8.4063711655456806E-04
              -3.1398825907917550E-03
              -7.7207671521631448E-03
               3.5080394535004511E-04
              -2.1347277490686494E-03
              -7.8747464368652733E-03
               1.2204312321903056E-02
              -4.9755981560123126E-05
              -3.7810373345959656E-03
               2.8045016012654862E-03
              -5.8799913047892609E-03
               3.8073351732211091E-03
               5.2667826745494582E-03
               7.3873393853896550E-04
               6.2152643686231267E-04
               6.3488424306153372E-03
               5.7182448819036577E-03
              -1.8831356520962940E-02
               3.5769086940893552E-03
               6.6129855058090509E-03
               4.7564390526418964E-03
               1.0617228064165284E-02
              -2.6295757929517515E-03
              -2.4853018016284291E-03
               3.5097835381113895E-03
              -8.2886578920880940E-03
              -2.1459162097428970E-03
               4.4743868634315054E-03
               6.7492406554851576E-04
              -1.7853806285640923E-03
               3.5051236433029766E-03
              -2.8266562226079150E-03
               4.7119710792824562E-03
              -1.0070247265826634E-02
               4.8188647226534266E-03
               4.3172508864318618E-03
              -1.6628962395900547E-04
              -4.4722298751593108E-03
              -4.5387991526355271E-03
               5.3884126424628073E-03
              -3.0299416392877121E-03
               4.5073031954524648E-03
              -3.3496001656169649E-04
               1.5258384829478574E-02
              -6.6824843199130993E-03
              -6.4910311790988611E-03
              -2.7628922330136634E-03
               7.9683172056658046E-03
               5.2546479353275596E-03
              -1.6652206998394958E-03
              -6.1637728985703645E-03
              -1.5897949299924431E-02
               6.9698182897266767E-03
               5.5046236134004686E-03
              -6.8533838067121166E-03
               9.0324902307658012E-03
              -2.0091547934789878E-03
               1.5423636351518007E-04
               3.9976636802977351E-03
               1.6889554939956790E-03
              -4.0450539204317758E-03
              -5.2466611352532441E-03
              -6.4142285845591729E-03
               8.9218985722480334E-04
               2.5557050386217058E-03
               5.7431003812277231E-03
               1.2203226897413808E-02
              -4.3054473622556573E-03
              -1.0869796247010287E-02
              -7.2426052132653993E-03
               1.0936866223022975E-02
              -2.8333590794195371E-03
              -2.1585393994430109E-03
              -5.6960448169831397E-04
              -5.0305376644759203E-03
              -2.5430970131421079E-03
               5.7042287711684724E-03
              -1.0262054819296609E-02
              -1.5091539058507259E-03
               2.5433446478309338E-03
               7.8878865167534267E-03
              -4.1566393186879911E-03
              -2.4397773036408284E-03
               6.4859826726963148E-03
              -1.7496215524350107E-02
               1.7238973573694073E-02
              -2.5461495290240218E-03
              -4.5573222646949517E-03
              -2.7607474685921868E-03
              -1.0953593594986153E-03
               1.7749595319308672E-04
               2.6357679441368544E-03
              -9.4367719855123868E-04
              -7.4422518339455641E-03
               1.0492377799769685E-02
               6.2632640081417279E-03
              -7.5771197914028914E-03
              -5.6846218564904610E-03
               2.0306350617309904E-03
              -3.2103778788380470E-03
              -1.2842871555974915E-03
              -2.2256877753884974E-03
              -2.0912056614441625E-03
               1.4756988682792233E-02
              -2.3906829445527744E-03
              -1.0226022709411754E-03
              -1.0109185418358266E-03
              -5.2358272504722620E-03
              -2.3966687782380714E-03
               5.3108171020019160E-04
              -2.8030317011290794E-03
               9.3210704162082266E-03
              -7.0107261021886318E-03
               1.3703022099483677E-02
              -9.4024610020409932E-03
               4.3678605467740595E-03
               4.8445436598048381E-03
              -9.7125600923058594E-03
               9.1144087354515044E-03
               2.3065825371287901E-04
              -1.1245482998231764E-02
              -8.7500607972180468E-04
               7.4573030306029756E-04
              -1.0994916491433322E-03
               9.1512268043525517E-03
              -1.8544950140047351E-04
              -5.4950234735010170E-04
              -1.0252140040030563E-03
               7.6696721513700740E-05
              -3.2049828538989805E-03
               9.1275105727084936E-03
              -1.3644954545369452E-02
               2.9065062485225993E-03
               9.1151187958509114E-03
              -5.7714431687314197E-03
               4.4591236916115941E-03
               5.8712982170281488E-04
              -2.7996751516913680E-03
              -1.5398131939226268E-03
               9.5413126557775813E-03
               5.6461922771881626E-03
              -5.9322716488059701E-04
              -4.2278732941962490E-03
              -1.8877132579137633E-03
              -2.4643872541848908E-03
               3.8824052552741501E-03
               3.3924870570929818E-04
               8.2269495066055413E-03
              -3.9922254201047178E-03
              -1.2953240504068224E-03
               2.7828046755072949E-03
               6.8002423077371870E-03
              -7.8967439697241546E-03
              -7.4279912693191591E-03
              -8.8888643407684029E-03
               3.8748158382196935E-03
              -7.5152485234855940E-04
               6.0336013242211738E-03
              -5.2966050231162323E-03
               1.0681249742077632E-02
              -1.5415937046974533E-02
               2.0901389859185479E-02
              -7.6992430283195001E-04
               7.4321435264735865E-03
              -5.4054130782065814E-04
               4.1553827869020539E-03
              -6.3645191741278180E-03
               1.6385863531440995E-03
              -5.8161711080136312E-03
              -4.2492442047108699E-03
               9.2745861547309637E-03
              -3.1651774117473445E-03
              -6.2946074355949202E-03
               1.8617112365437369E-03
               1.1812363601784049E-02
               3.2426633294086048E-03
               1.8835923565422316E-04
              -3.3324433868601552E-02
               1.8275573991181824E-02
               3.6741322490336284E-03
               9.4646985955766233E-03
              -6.1979517474575188E-03
               2.9510274289204410E-03
               1.5289445387473470E-02
              -4.4619393920943698E-03
              -1.0698332871529019E-02
              -5.1836580910446014E-03
               3.9559830699740188E-04
              -5.5898829076350244E-03
              -2.0784075962520976E-03
              -3.2745176579019233E-03
              -1.2563537685238949E-03
               1.6163704596430000E-02
               4.0010212478945736E-04
              -6.8728672491537293E-03
              -2.2395681872931098E-03
               9.2031299460065569E-03
              -8.5039551390412530E-03
              -4.1938450851445649E-03
              -2.2841569504463842E-03
               1.6838280322397368E-04
              -9.0088127892312044E-03
               7.5016672093867007E-03
               2.6377900398020567E-03
              -7.3371945319843860E-05
               6.8541531227339723E-03
              -1.3326255041099841E-02
              -2.8706789919307361E-03
              -3.3599381169312787E-03
               3.0419092843188052E-03
               1.4946740174564458E-02
              -6.2960150588614837E-03
              -8.9261446122126699E-03
               3.9426564271836332E-03
               6.9000939385951421E-03
              -6.0627360966515192E-03
               1.2835267211384669E-02
               1.1925384129426373E-03
               4.1538100104736766E-03
              -1.0936983703021388E-02
              -5.9151841804826284E-03
               1.4360847077873346E-02
              -7.1263423641552484E-03
              -9.8637677938826634E-03
               1.6028083755343696E-02
              -4.7129470293197327E-03
               7.5588741929407581E-03
               2.8263124616736530E-03
               3.6995203786553852E-03
              -4.7621005871139330E-03
              -4.0180641331025238E-03
               1.6372455222041589E-03
              -1.9136223718435853E-02
               9.0879034505834053E-03
              -2.8384296567315098E-03
               4.6049814973242870E-03
               2.7453377265207091E-03
               1.0098914966134156E-02
               3.1324717120498760E-03
              -8.6750969946652601E-03
               1.5656802491178110E-02
               2.8894240815931908E-03
              -1.4257590514712086E-02
               2.6322322615360363E-03
              -4.9555804123995444E-03
               3.2410987297416311E-04
              -8.3349153983100013E-03
               2.1626020990842161E-04
              -1.8919433874327084E-03
               2.0404394371804180E-03
               2.0520798802103183E-03
               6.0382138950996608E-03
               5.1916130482505003E-03
              -9.0744910296444176E-03
              -2.1113104294791852E-03
              -9.4285385352758100E-03
               1.2988778537745936E-02
              -1.6094338648886194E-04
              -5.6837966090139032E-03
              -5.3475022953520532E-03
               4.4140904598581505E-03
               1.9289799786158079E-03
              -3.0121494181786731E-03
              -1.0517478708601688E-02
              -7.6842151325383981E-03
              -2.5061778800524164E-03
               1.8042967744572487E-02
               4.6973225416791203E-03
              -6.0963847085456380E-04
              -1.0129338838912106E-02
              -2.7471003032373820E-03
               1.1631522418050840E-03
              -7.9967303039653250E-04
               4.3294580488842697E-04
               4.8999504718026977E-03
              -2.7962888918851908E-03
              -3.5033959423656650E-03
               4.3780234480568173E-03
              -5.5940721587402487E-03
              -1.3777309893575895E-03
               3.2705116848529146E-03
               2.6484371708976905E-03
               1.3799569138628052E-03
               2.0228808112650928E-02
              -3.7761056656215853E-03
              -1.9334597101670972E-02
               1.3937484403188777E-02
              -3.6394797286041732E-03
              -5.0199047266886480E-03
              -5.2642871711359633E-03
              -1.4752632865518974E-04
              -1.1466655074795072E-02
               2.2542361392613990E-02
              -3.2419684506030228E-03
              -9.6855174510971785E-04
              -6.3293013521153220E-03
               1.0802960948396710E-03
              -2.9650487566387222E-03
               3.5570444567368641E-03
               4.8593736718102786E-03
              -1.3843769441500894E-02
               3.7647757238956844E-03
               6.8344672737935671E-03
              -1.1016778345399259E-02
               7.3012072087090089E-03
               1.5243874933720394E-02
               3.1636920162458095E-03
               5.1461231004444660E-03
               8.3722879939514792E-03
              -1.0277183057457466E-02
               6.7975007643631446E-03
               7.3716379369384291E-03
               4.8983628448919176E-04
              -7.2002525741204680E-03
               5.4746562107368924E-04
              -7.9970611551472958E-03
              -5.9997988447960050E-04
               5.8046746491127515E-03
               1.2211589995092973E-03
              -7.7163189764322031E-03
               7.6827220137138707E-03
              -1.9396123098702662E-03
              -9.5774599274475199E-06
              -3.2971532610566751E-03
               5.6561499255407635E-04
               1.5605569086420855E-03
              -1.6560742312920931E-03
              -5.1127716783205702E-03
               3.2363587262606505E-03
              -6.9094062617244441E-03
               7.3437197882650124E-04
               1.0898946327273843E-02
              -1.0309230376570300E-02
              -2.9116349234837931E-03
              -4.7280653429840041E-03
               7.1234747450402590E-03
              -1.0603778532761961E-02
               2.4901045533323165E-04
               8.1779339067514414E-03
              -3.2945940558126146E-03
               7.8615095157827976E-03
              -9.4692724670504807E-03
              -1.2342546630232726E-02
              -7.0528614164700972E-04
               4.7406283600625078E-03
              -7.2290765720362709E-03
              -9.6492541123319731E-03
               4.0855803017669640E-03
               5.3966391169781511E-03
               1.0174888158292539E-02
              -5.2856768068179662E-03
              -3.8441398244771609E-03
              -2.4973115639376599E-03
               1.9986679629198957E-03
               2.8775277105852299E-03
              -8.1403223740920197E-03
              -8.1750165248025454E-03
               1.9632899211834979E-02
               4.1863553551091896E-03
              -1.1902963081129739E-02
              -6.3124940318378207E-03
               4.6446153821566982E-03
              -2.2537547716492998E-03
               4.7308352835613117E-03
              -9.2037592773957740E-04
              -4.5064412637334391E-04
               7.0089374865821372E-03
              -7.4859847595358311E-03
               2.9575879575064060E-03
              -3.2839911261346938E-03
               4.9268740330018473E-03
               1.4875613359963747E-03
               1.0155065260876381E-02
              -1.6665800985557703E-03
              -3.0065820047637431E-03
              -1.1840068933852606E-03
               7.4554705307756392E-03
               6.5444700452239098E-03
               7.1560147642798339E-04
              -2.3768207710728453E-03
               2.3469136041878464E-03
              -9.8890521369580202E-03
               9.6479186883530309E-03
              -1.4230467158585472E-03
               6.0509980424819114E-03
              -4.6479806012795031E-03
              -1.9987688902160438E-03
              -3.7268632803168292E-03
              -3.4407343077741768E-03
               1.4460736866322109E-04
               1.3919609156356864E-04
               6.2492109314526479E-04
               1.1322621833946096E-03
               8.7476802995189243E-03
               6.7619153034562838E-03
              -1.1180312460098348E-02
               3.9062984899480395E-03
              -1.5262777376345562E-03
              -1.7063463959966605E-03
               7.4719288249883173E-03
               3.8292131838458601E-03
               2.4226011602489241E-04
              -2.6716772821858740E-03
              -1.1239046190750919E-02
              -5.4590162707102742E-03
               3.1110840591411430E-03
              -5.6711513933587181E-03
               2.2760584822948287E-03
               8.0797675760099232E-04
               1.4675024890428193E-03
               9.5597559334769364E-05
              -3.6114266545155863E-03
               8.9122621815168994E-03
              -1.0579646026959148E-02
              -4.1651837387951811E-04
              -1.4543347338724845E-03
              -3.8900462290290968E-03
              -6.0338064337657265E-03
              -3.4545720387324846E-03
               5.4977215485746949E-03
               3.0422743372742313E-03
               3.2636339942715255E-03
              -8.1092142866337792E-03
              -1.0600396572816029E-02
               1.4936799476016650E-02
               2.6582032481049672E-03
               3.2798069435317431E-04
              -8.2998899344608064E-04
              -1.3005531327558951E-02
               6.9984920630625927E-03
               2.4239880328034017E-03
              -1.2934664341753364E-02
              -1.7750946261556203E-03
              -5.9075185849498425E-03
              -2.4205912828747008E-03
              -5.6672842061177365E-03
               1.1222910112878534E-02
               3.3590624398268472E-03
              -1.0991929352114887E-03
              -7.0677697088490938E-03
              -6.1074335965787669E-04
              -4.7189952993581565E-03
               4.2206100877872571E-03
               2.6170477649036876E-03
               3.6678821199073132E-03
              -1.5434900315886380E-03
               3.1352454698736405E-03
               6.2999376930648349E-03
               8.5805751406431065E-03
              -7.3456600952848212E-03
               1.1181167461145655E-03
               4.4076196112150905E-03
              -1.2873670966548699E-03
              -2.3721352485787210E-03
               1.1226033751702563E-02
              -6.5373843777456024E-03
              -1.2881790251357075E-02
               9.3418228580490024E-04
               5.7119745621864232E-03
              -7.1074668458642775E-04
               1.8360042245640796E-03
               7.0113524566019398E-04
              -8.1819346469134951E-03
               6.3649090336872546E-03
               6.5025358785780630E-03
              -2.6222108899716942E-03
               5.6086357577145359E-03
               6.7843376935420154E-04
              -1.6711082765320340E-03
               3.7373622121125386E-03
              -3.6071414923777726E-03
              -3.0185759030841239E-03
               1.6405690107244152E-03
               2.7245732257050524E-03
              -3.8992866672160633E-03
               9.7600837436144700E-04
              -1.6849531686266537E-04
         &END THERMOSTAT_ENERGY
         &RNG_INIT
Wiener process for Thermostat # 1        1 F T T   7.5924096568615884E-01         125446900.0        4179491739.0        3372872240.0        2536913582.0         394975612.0         881586292.0             12345.0             12345.0             12345.0             12345.0             12345.0             12345.0             12345.0             12345.0             12345.0             12345.0             12345.0             12345.0
Wiener process for Thermostat # 2        1 F T T  -4.4331095498975270E-01        4059184352.0          13737264.0         651579087.0        2993055229.0        2689098550.0        2270397345.0        3692455944.0        1366884236.0        2968912127.0         335948734.0        4161675175.0         475798818.0        3692455944.0        1366884236.0        2968912127.0         335948734.0        4161675175.0         475798818.0
Wiener process for Thermostat # 3        1 F T T  -9.7946846741530180E-01        1413750811.0        1064273151.0         378170829.0        1499010604.0         385072440.0        2673642281.0        1015873554.0        1310354410.0        2249465273.0         994084013.0        2912484720.0        3876682925.0        1015873554.0        1310354410.0        2249465273.0         994084013.0        2912484720.0        3876682925.0
Wiener process for Thermostat # 4        1 F T T  -1.1770572022673241E-01        3664287059.0        1717789082.0        2897226825.0        2963973679.0         349683482.0        1297850318.0        2338701263.0        1119171942.0        2570676563.0         317077452.0        3194180850.0         618832124.0        2338701263.0        1119171942.0        2570676563.0         317077452.0        3194180850.0         618832124.0
Wiener process for Thermostat # 5        1 F T T  -7.4113788058586361E-01        1688200923.0         132039553.0        1265620125.0        2383095733.0        3607032829.0        4037239039.0        1597262096.0        3906379055.0        3312112953.0        1016013135.0        4099474108.0         275305423.0        1597262096.0        3906379055.0        3312112953.0        1016013135.0        4099474108.0         275305423.0
Wiener process for Thermostat # 6        1 F T T   4.5005473728982032E-01        2256774423.0        3959857890.0        3312470246.0        3529635363.0        4244394119.0        2985559911.0          97147054.0        3131372450.0         829345164.0        3691032523.0        3006063034.0        4259826321.0          97147054.0        3131372450.0         829345164.0        3691032523.0        3006063034.0        4259826321.0
Wiener process for Thermostat # 7        1 F T T   8.3193547680507934E-02        3327025152.0         101130292.0        2050641685.0         600071111.0        2136185160.0        2336423513.0         796079799.0        2105258207.0         955365076.0        2923159030.0        4116632677.0        3067683584.0         796079799.0        2105258207.0         955365076.0        2923159030.0        4116632677.0        3067683584.0
Wiener process for Thermostat # 8        1 F T T  -1.5273812199104567E-01         175167633.0        4259635556.0        3048916500.0        1324284744.0        3685820939.0        2852624103.0        3281794178.0        2616230133.0        1457051261.0        2762791137.0        2480527362.0        2282316169.0        3281794178.0        2616230133.0        1457051261.0        2762791137.0        2480527362.0        2282316169.0
Wiener process for Thermostat # 9        1 F T T  -6.2413209055867025E-01        2474836259.0        3468509716.0        1577406962.0        4021331510.0        3177998994.0         715386561.0        3777646647.0        1837464056.0        4204654757.0         664239048.0        4190510072.0        2959195122.0        3777646647.0        1837464056.0        4204654757.0         664239048.0        4190510072.0        2959195122.0
Wiener process for Thermostat # 10       1 F T T   4.9736888772467486E-01        2323583940.0        1729199430.0        1354505948.0        3044322003.0        3039272160.0         379309198.0        4215590817.0        3862461878.0        1087200967.0        1544910132.0         936383720.0        1611370123.0        4215590817.0        3862461878.0        1087200967.0        1544910132.0         936383720.0        1611370123.0
Wiener process for Thermostat # 11       1 F T T  -6.6304247801334604E-01        2096993268.0        1304131494.0        2434287869.0        3354852083.0         675792538.0        3767478554.0        1683636369.0         362165168.0         814316280.0         869382050.0         980203903.0        2062101717.0        1683636369.0         362165168.0         814316280.0         869382050.0         980203903.0        2062101717.0
Wiener process for Thermostat # 12       1 F T T  -1.2922144140793326E+00        1257414614.0        2514277414.0        1341877940.0          49953846.0         974024886.0         853316686.0         272317999.0         166758548.0         310112982.0         201045826.0        1680231254.0         118290799.0         272317999.0         166758548.0         310112982.0         201045826.0        1680231254.0         118290799.0
Wiener process for Thermostat # 13       1 F T T  -5.5350040362139585E-01        2687450781.0        2162113056.0        1961413045.0        2464662886.0         327645895.0        1789144019.0        2245755202.0        1652682525.0        2865544364.0         721509566.0         209733568.0         592362218.0        2245755202.0        1652682525.0        2865544364.0         721509566.0         209733568.0         592362218.0
Wiener process for Thermostat # 14       1 F T T  -1.8288170228810756E+00        4275783642.0        1881855191.0         446461700.0        3095754606.0         658168638.0        3392013549.0        3003961408.0        3529909391.0          14538032.0        3603919910.0         566682685.0        1235016484.0        3003961408.0        3529909391.0          14538032.0        3603919910.0         566682685.0        1235016484.0