 # Version information for this restart file 
 # current date 2022-11-29 18:54:02.521
 # current working dir /home/yx2892/comp-lab-class/Week12/Runs/water_new
 # Program compiled at                              Sat Dec 12 18:27:15 EST 2020
 # Program compiled on                                         cs001.nyu.cluster
 # Program compiled for                                                nyu-intel
 # Source code revision number                                       git:8c64c6e
 &GLOBAL
   PRINT_LEVEL  LOW
   PROJECT_NAME water_aimd_1ns_every0.5fs
   RUN_TYPE  MD
   WALLTIME 21600
 &END GLOBAL
 &MOTION
   &GEO_OPT
     OPTIMIZER  BFGS
     MAX_ITER  100
     MAX_DR     3.0000000000000001E-03
     &BFGS
     &END BFGS
   &END GEO_OPT
   &MD
     ENSEMBLE  NVT
     STEPS  2000000
     TIMESTEP     4.9999999999999994E-01
     STEP_START_VAL  1584
     TIME_START_VAL     7.9200000000000944E+02
     ECONS_START_VAL    -1.1023558357480233E+03
     TEMPERATURE     3.0000000000000000E+02
     &THERMOSTAT
       TYPE  GLE
       REGION  MASSIVE
       &GLE
         NDIM  5
         A_SCALE     1.0000000000000000E+00
         A_LIST     1.8595758612559999E+02    2.7263853498399998E-01    1.1526100454610001E+01   -3.6414578262600003E+01 \
             2.3173375816020001E+02
         A_LIST    -2.7809524712060002E-01    8.5951591808710006E-05    7.2189048017650004E-01   -1.9844539343859999E-01 \
             4.2409257583420001E-01
         A_LIST    -1.4825808131210000E+01   -7.2189048017650004E-01    1.3590902121280000E+00    5.1498896280349999E+00 \
            -9.9949268450990001E+00
         A_LIST    -1.0372189126880000E+01    1.9844539343859999E-01   -5.1498896280349999E+00    2.6661910891169999E+01 \
             1.1507715495310000E+01
         A_LIST     2.1801346360420001E+02   -4.2409257583420001E-01    9.9949268450990001E+00   -1.1507715495310000E+01 \
             3.0958394565589998E+02
         &THERMOSTAT_ENERGY
              -4.4191646740527925E-03
              -1.3841702085684161E-03
              -3.6309297025999094E-03
               6.5496467077055531E-03
              -9.1714903832509510E-03
               4.6637152783257267E-03
               2.9960008757243641E-03
              -1.1822659747172563E-02
               1.4100173102109930E-02
               4.1996089454419093E-03
               1.0867797903772557E-02
              -3.0811617165094991E-03
              -6.6561912477478566E-04
              -1.0543659766000687E-02
               1.8660153552544436E-03
              -5.9039606389973557E-03
               1.6576501835643215E-02
               7.6805863569233011E-04
               8.4609067640204899E-03
              -7.9157620706219733E-03
               1.8428687473128228E-03
               8.9284913741420895E-04
              -2.1692554162921151E-03
              -9.8943731218343873E-04
              -1.6045707007694920E-03
              -9.3921813744131497E-04
               9.8351642250702614E-04
              -4.9260744643468267E-04
               1.1097227080454540E-02
               1.8711930921024120E-03
               1.9349571490312762E-03
              -3.2466473420233047E-03
              -3.6722532703102975E-04
               1.7617907545663372E-03
              -1.4962132629423038E-02
               1.7242803537223440E-02
              -1.1333644823913233E-03
              -2.8516704463078580E-03
              -1.7083181069261081E-03
               5.4098823925939239E-03
              -9.0175748412953324E-03
              -1.3407626232940085E-03
               6.0885546442638648E-03
               4.9874263986652489E-03
              -2.5399839212369279E-03
               2.8026519135299485E-03
              -5.8633723615272480E-04
               5.3926713058617733E-03
               3.5558858461592479E-04
               1.9700176768142653E-03
              -4.0917628708601682E-04
              -3.7217964810075063E-04
              -4.9179991014199525E-03
               1.8878961518456932E-03
              -6.3256933737878621E-03
               5.6050951216526793E-03
              -2.2924556757508529E-03
              -1.4010464620062052E-05
               8.7697306028704626E-04
               1.1455858652283255E-02
               8.9324194282571455E-04
              -1.1796541998559765E-02
               1.8140979007038743E-02
              -2.9862114851523353E-03
               2.5281424960954552E-03
               1.0036913642787156E-03
              -9.7718880790032565E-03
               3.1832556541318319E-03
               2.0496070317790778E-02
               3.8690788524288538E-03
               5.1745421111541701E-05
              -1.2951394181427291E-02
              -1.0202511367214321E-03
              -2.6435451557837845E-04
              -3.9067934408264622E-04
              -1.3161625094605922E-02
               2.9406827523932168E-03
               3.4422045813997161E-03
               9.6565095898697509E-03
              -1.2472580161338329E-02
               1.9826898185931436E-02
              -4.4232340659174953E-03
               1.3223019135099128E-03
              -2.2170341415042407E-03
               2.3738789532101491E-03
               8.5775887796419748E-03
               1.2563348775920140E-03
              -5.5055894976470381E-03
               2.7320901516263039E-03
               1.8595906487659593E-03
              -6.6651717798079448E-05
              -9.2598841204015181E-03
               4.2485871536010501E-03
              -5.7254145857194710E-03
              -7.8531895826469463E-03
               6.9933769856184384E-03
               9.1391647253620412E-03
              -1.1289921341095224E-03
               4.1674327096171606E-03
               1.0035772257309830E-03
              -2.9889340454762442E-03
              -7.5654156345414184E-03
               1.0384369949204687E-03
              -2.0850922454053161E-03
              -7.4381763662956348E-03
               1.1701568100098488E-02
              -1.3844803338407125E-04
              -3.5557754367557038E-03
               3.2393330778367293E-03
              -5.8808464463164026E-03
               3.7025685724201805E-03
               5.4008328980374694E-03
               7.2692289569652603E-04
               9.0513372749651574E-04
               6.2753547662220757E-03
               5.8480420053455325E-03
              -1.8874337923463373E-02
               3.4932836223722074E-03
               6.8502865920232262E-03
               4.8294557027050459E-03
               1.0624947972410554E-02
              -2.6510449132862521E-03
              -3.0541460253562243E-03
               4.3507453526539508E-03
              -8.7821459965343324E-03
              -2.3330366597175641E-03
               4.8976962787673642E-03
              -5.9547165402358906E-04
              -1.4880887447250154E-03
               3.5308502966531277E-03
              -3.5704898242593461E-03
               4.6128953910857372E-03
              -1.0068897600521202E-02
               6.4546416375523873E-03
               3.8599016403991523E-03
              -1.8953991523116702E-04
              -3.0083940018905374E-03
              -4.5756405427764407E-03
               5.1773834691878811E-03
              -3.1326740265095656E-03
               4.6296113312019205E-03
              -3.2763948787006104E-04
               1.4790623555772096E-02
              -6.0245268625235193E-03
              -7.1948128468082642E-03
              -1.4878196980068084E-03
               8.0483058313181258E-03
               4.7943598496997713E-03
              -1.6193022620155633E-03
              -6.8489803751557157E-03
              -1.5819518475287338E-02
               6.8986524942160092E-03
               5.1070496059624857E-03
              -6.3716640608136354E-03
               9.1680116796430573E-03
              -1.9190445219395111E-03
              -4.1790848264747671E-04
               3.5967464600465526E-03
               2.1176040017877543E-03
              -4.3712058748376116E-03
              -4.9122542408589513E-03
              -6.7804293153587211E-03
               6.9723168868331337E-04
               2.5246665335795790E-03
               5.4495635437582547E-03
               1.1470246206480676E-02
              -4.2600702412621478E-03
              -1.0916274744291393E-02
              -7.0728093584641379E-03
               1.0415311256437867E-02
              -3.0387893147682922E-03
              -2.0803294667541068E-03
               1.1856072772782990E-04
              -6.3556947723003212E-03
              -2.3475122371686401E-03
               5.5691862604836983E-03
              -1.0373569244149184E-02
              -1.5884056239131045E-03
               2.7014097080524180E-03
               7.6801830350310078E-03
              -3.0777304341693228E-03
              -2.1302906471715455E-03
               6.5809174061080850E-03
              -1.7633149258025910E-02
               1.7489305545501977E-02
              -1.9206647184824965E-03
              -5.2665268536475655E-03
              -3.0315954058550295E-03
              -1.7353468848308100E-03
               7.0970199010689933E-05
               1.3578316596241560E-03
              -9.3114340560930412E-04
              -7.7297385062809892E-03
               1.0403661206998026E-02
               6.5746173760765714E-03
              -7.6054083586434553E-03
              -5.9430323815934391E-03
               1.8086378929016685E-03
              -3.3980656863738345E-03
              -1.2556043435124349E-03
              -1.8834119937604431E-03
              -2.0293674437177967E-03
               1.5695659352133611E-02
              -2.1457590021315719E-03
              -8.1577781215459331E-04
              -1.3020329388048100E-03
              -5.3360580851780932E-03
              -2.2996385511396106E-03
               5.4870988900573717E-04
              -4.0215246923911881E-03
               9.3586575476300761E-03
              -6.5197284201585336E-03
               1.3728679480101862E-02
              -9.3255097476532493E-03
               5.0256949678995026E-03
               4.9044234461405149E-03
              -9.7228588241688885E-03
               9.4255802801757223E-03
               2.2909483484047637E-04
              -1.1017111075042134E-02
              -9.5265822188094753E-04
               5.6578096113141425E-04
              -7.2390204871481409E-04
               9.1809434327684847E-03
               3.9094390993782739E-04
              -4.0189186208580891E-04
              -1.1400396362456612E-03
              -2.1993176582603440E-04
              -3.2381322774165965E-03
               9.0844618236045425E-03
              -1.4384233346523629E-02
               2.6481487022578746E-03
               9.8012043255948974E-03
              -5.6909889168319048E-03
               4.5575087385467273E-03
               5.6694363617468583E-05
              -2.9222565412517832E-03
              -1.1045694250690361E-03
               9.6316301002100160E-03
               5.7083583378468236E-03
              -5.6316054465932659E-04
              -4.2170316241974893E-03
              -2.0355067335640579E-03
              -2.5481543703087806E-03
               3.9334673114309734E-03
               1.3931769265852870E-04
               7.9619116328103236E-03
              -3.8939367840698288E-03
              -7.9922771663426388E-04
               2.7406319831125574E-03
               7.0016836392894849E-03
              -7.5238153011639016E-03
              -7.2686634518133340E-03
              -8.7448188057668175E-03
               4.1707427777285993E-03
              -5.3414725684273632E-04
               5.9909374945115315E-03
              -5.5011099318843957E-03
               1.0555577457398763E-02
              -1.6697829294221631E-02
               2.1093282626569815E-02
              -8.1803998170429078E-04
               7.4045634682437331E-03
              -1.6911456200616290E-04
               4.1191315693021226E-03
              -6.1362157795761853E-03
               1.6047844507073666E-03
              -5.4287794834728337E-03
              -3.5020777635481819E-03
               9.3181286454504485E-03
              -3.5514970540003665E-03
              -7.1268728865395139E-03
               1.8357238655790893E-03
               1.2218046555323200E-02
               2.9966301798188951E-03
               7.6317505345725311E-04
              -3.2457664916022769E-02
               1.8378731969042144E-02
               4.8956350080876111E-03
               9.3807048807580604E-03
              -6.3388180726261165E-03
               3.2799180339258337E-03
               1.5881189473308917E-02
              -4.1445345383303482E-03
              -1.0357056615962583E-02
              -5.2107978389752544E-03
               3.3365585468129224E-04
              -5.4819119804401795E-03
              -2.1115851960766085E-03
              -3.1017927734041072E-03
              -1.3540636121438054E-03
               1.6222872872756061E-02
               6.1987545058153669E-05
              -6.9946354659793193E-03
              -2.1156870101468063E-03
               9.2934461480386581E-03
              -8.8257610838038611E-03
              -4.1996876162783952E-03
              -2.0795795001953446E-03
              -1.7622506849295297E-04
              -9.2251130848341328E-03
               7.4839749935690317E-03
               2.7923173887543025E-03
              -6.3996830345034892E-05
               6.9141177734253966E-03
              -1.3965476653139627E-02
              -2.7924884494755250E-03
              -1.4983646832775299E-03
               3.1132895405403529E-03
               1.4732581364330893E-02
              -6.3017440276917696E-03
              -8.9671194652848445E-03
               4.0595539543521715E-03
               6.3244327566786751E-03
              -5.0869038987837517E-03
               1.2417357027212065E-02
               1.4174856655308119E-03
               4.1359403865956048E-03
              -1.0924478706183608E-02
              -5.5437091368778875E-03
               1.4366138682944925E-02
              -6.5786757178378855E-03
              -9.7284486502420119E-03
               1.6480147297189156E-02
              -4.7241729955486405E-03
               7.1295877969334053E-03
               3.5983771867145404E-03
               3.8227977137222755E-03
              -4.8844071766138957E-03
              -2.8360252455302284E-03
               1.6650618347660727E-03
              -1.9891010204021640E-02
               9.3527773092725829E-03
              -2.5308470937220658E-03
               4.8012010535173552E-03
               2.6413100533398638E-03
               9.1484994867877048E-03
               3.0120409270890732E-03
              -8.7259778871763925E-03
               1.5849373097576440E-02
               3.0726364549357680E-03
              -1.4018125665066888E-02
               2.7749139587802734E-03
              -4.2123885365659332E-03
               1.2750197103302929E-04
              -8.4003927622083273E-03
              -4.1737129019756193E-05
              -2.4783667307759971E-03
               2.2379912156952142E-03
               1.9942299791211975E-03
               5.9296292378909245E-03
               5.3663943150980796E-03
              -9.0785637795870767E-03
              -2.2695011171754960E-03
              -8.6670908099104917E-03
               1.3172722212519609E-02
              -2.5734631245895334E-04
              -5.6497632140595092E-03
              -5.5807777374053489E-03
               5.3022495574164309E-03
               1.5000450523181513E-03
              -3.2894940577035893E-03
              -1.0725334187514458E-02
              -8.0615320070105776E-03
              -2.0304257548579866E-03
               1.7976698247094702E-02
               4.6407934748140377E-03
              -9.2056342057990315E-04
              -1.0268122699590368E-02
              -3.0057132950828958E-03
               7.0148817653644714E-04
              -5.6213362702981493E-04
               3.2546347754762266E-04
               4.8160810501003551E-03
              -3.1411652000234145E-03
              -3.8579067311257089E-03
               3.6510453361201602E-03
              -5.5344036432746655E-03
              -1.5516630722904872E-03
               3.2081102108163792E-03
               2.3191115898055429E-03
               1.4326706221814548E-03
               2.0098759628573978E-02
              -3.7651905313042435E-03
              -1.8296358536965419E-02
               1.3918177145962498E-02
              -3.6999441662336299E-03
              -6.3225422576833976E-03
              -5.2397184307249193E-03
              -1.2961475001921460E-04
              -1.0791562913453248E-02
               2.1866158996509285E-02
              -3.4910298813919773E-03
              -1.2844331473646487E-03
              -6.1764410118043990E-03
               1.0747063032582722E-03
              -2.9820864760556226E-03
               3.3860986814365974E-03
               4.7730929799682928E-03
              -1.3883113135537509E-02
               3.9917433232625997E-03
               6.3367532633872535E-03
              -1.0796821977956455E-02
               5.8063316294549271E-03
               1.5234010901884254E-02
               3.1648566277279848E-03
               5.4264867784176163E-03
               8.1964219117951556E-03
              -1.0697673578598580E-02
               6.8124455147009636E-03
               6.8931629389712076E-03
               5.0103649766444574E-04
              -7.4809990491325569E-03
               5.6072056042522469E-04
              -9.0117583672621113E-03
              -4.3654287297428162E-04
               5.6654825798538241E-03
               1.5535930434733669E-03
              -6.2326147276933483E-03
               8.4970865566965613E-03
              -1.8743856151988902E-03
              -7.7943051313486794E-05
              -3.4707957952298772E-03
               1.0709009195063734E-03
               1.6847682234172822E-03
              -1.5558055577372038E-03
              -4.4518767467925380E-03
               3.2625236098062726E-03
              -7.0180546498155782E-03
               9.5728556270623403E-04
               1.0834336495461469E-02
              -1.0332881542650166E-02
              -2.8976725322178453E-03
              -4.7160914683793730E-03
               7.0397221359343037E-03
              -1.0650999737434155E-02
               2.0839529534126834E-04
               8.2342474810766526E-03
              -3.3367465194250705E-03
               8.6495388935249364E-03
              -9.3430970620354409E-03
              -1.2064328297726955E-02
              -7.2614080745205813E-04
               4.6168138072773231E-03
              -6.8659807912055653E-03
              -9.7059052697360381E-03
               5.5053953390386753E-03
               6.7434582580513927E-03
               1.0019534490737312E-02
              -5.7443447914644948E-03
              -4.0618556491974567E-03
              -2.4865796386097289E-03
               2.1817324008361347E-03
               1.9295651253381724E-03
              -8.1299705248288057E-03
              -1.0953000867152601E-02
               2.0341160206798072E-02
               3.7783107264555359E-03
              -1.2344817175455920E-02
              -6.8618256934176872E-03
               4.8589311212805927E-03
              -2.2345287007976117E-03
               4.9691810782610613E-03
              -5.5151836945482467E-04
              -4.6167682342325829E-04
               6.9953933048448975E-03
              -7.8970824034117742E-03
               2.5567064766564038E-03
              -3.0050182662280625E-03
               4.6116896217869808E-03
               1.4402730190286582E-03
               1.0560973933573518E-02
              -4.4804975891373508E-04
              -2.9163196006260889E-03
              -1.8460045610365176E-03
               7.4634438065791422E-03
               6.1951219312030787E-03
               5.7057963195000414E-04
              -2.4320529420103561E-03
               2.3140409234412361E-03
              -1.0453061653025822E-02
               9.3368926546317892E-03
              -1.1285587414429079E-03
               6.3354668576497738E-03
              -4.6455514444911014E-03
              -1.9820934316139463E-03
              -4.7322322646406482E-03
              -3.7613460317093578E-03
               1.8452192554795321E-04
               1.4356024618879118E-04
              -1.1505422172446557E-04
               7.7140220314228557E-04
               8.7807271068109059E-03
               6.5101891383042869E-03
              -1.1353541048395832E-02
               3.9064872162480665E-03
              -6.8070550707385196E-04
              -4.5052787014433879E-04
               7.4467083104429619E-03
               5.2443013455612556E-03
               9.5604121250059609E-05
              -3.4698933712978847E-03
              -1.1827489162508968E-02
              -5.4223908661091124E-03
               3.0501261425842814E-03
              -4.7013989703728019E-03
               2.3332243240535336E-03
              -2.7457902866943168E-04
               1.4383467395635873E-03
               5.9833626280473597E-04
              -3.4216958545185499E-03
               9.6422981204521453E-03
              -1.0857795147775221E-02
              -5.9600533477977729E-04
               7.9489387834758419E-06
              -4.3660697329023839E-03
              -5.7843703861597357E-03
              -3.3439292373400324E-03
               5.2465868151374117E-03
               2.9107120215673111E-03
               2.8843213392447265E-03
              -8.5038294427034634E-03
              -1.1383442646615984E-02
               1.4493672625290681E-02
               2.6413072996941808E-03
               2.4599172376778668E-04
              -1.1442200577447942E-03
              -1.2502924120837195E-02
               7.1723976120157528E-03
               2.1133061150682446E-03
              -1.2975969972121521E-02
               7.5724866261875216E-05
              -5.1328390536444250E-03
              -2.4371875004503183E-03
              -6.4960242136186275E-03
               1.1246119992135886E-02
               3.2518393295914022E-03
              -1.3020001835918245E-03
              -6.9915320479001916E-03
              -6.1301603273925388E-04
              -4.8359257377280068E-03
               4.1863787274819099E-03
               2.7993373011122309E-03
               2.3394474593251206E-03
              -1.3851358332364239E-03
               3.1878395672672779E-03
               6.3239014256445342E-03
               7.4202087311559424E-03
              -7.2829848599353427E-03
               1.2200758194454511E-03
               3.6342160507374845E-03
              -1.4796729296738989E-03
              -2.4863645059761425E-03
               1.1255868735014277E-02
              -6.6155328002865275E-03
              -1.2837934053998188E-02
               8.9727099988572666E-04
               5.9642592740778138E-03
              -8.2302920842219917E-04
               1.8458677804063103E-03
               6.6044856206789288E-04
              -8.4259967488434888E-03
               6.2250140070668576E-03
               6.2649670255066139E-03
              -2.4172682184774950E-03
               6.4753165964220403E-03
               4.3158133212245833E-04
              -2.0257704497884457E-03
               3.6780391370005014E-03
              -3.7619323820102151E-03
              -3.0618979062664378E-03
               1.5549882778735499E-03
               3.2536180963399866E-03
              -2.9800835714177292E-03
               1.0001008397663063E-03
               3.3300693203296887E-04
         &END THERMOSTAT_ENERGY
         &RNG_INIT
Wiener process for Thermostat # 1        1 F T T   9.4525752042767630E-01        1131472813.0        3580273064.0         539736262.0        1402100554.0          41964020.0        3329268074.0             12345.0             12345.0             12345.0             12345.0             12345.0             12345.0             12345.0             12345.0             12345.0             12345.0             12345.0             12345.0
Wiener process for Thermostat # 2        1 F T T  -7.5206526980690014E-01        2985797825.0        2886666223.0        3750304582.0        1944448365.0        2463157669.0        2477687697.0        3692455944.0        1366884236.0        2968912127.0         335948734.0        4161675175.0         475798818.0        3692455944.0        1366884236.0        2968912127.0         335948734.0        4161675175.0         475798818.0
Wiener process for Thermostat # 3        1 F T T   8.8882103986497929E-01        3527119146.0         662005048.0        2531289970.0        3939165387.0        2609571325.0         888067965.0        1015873554.0        1310354410.0        2249465273.0         994084013.0        2912484720.0        3876682925.0        1015873554.0        1310354410.0        2249465273.0         994084013.0        2912484720.0        3876682925.0
Wiener process for Thermostat # 4        1 F T T   2.3808073963036697E-01         679841623.0        2562735457.0        1811356133.0        1715883492.0        3695169905.0        4049871230.0        2338701263.0        1119171942.0        2570676563.0         317077452.0        3194180850.0         618832124.0        2338701263.0        1119171942.0        2570676563.0         317077452.0        3194180850.0         618832124.0
Wiener process for Thermostat # 5        1 F T T  -1.1262208390431516E-01        2179648702.0         765462399.0        4267803513.0        2407565375.0        3012661168.0        2653520783.0        1597262096.0        3906379055.0        3312112953.0        1016013135.0        4099474108.0         275305423.0        1597262096.0        3906379055.0        3312112953.0        1016013135.0        4099474108.0         275305423.0
Wiener process for Thermostat # 6        1 F T T  -6.0644583439267583E-02        2922813643.0        2368585124.0         524733294.0        1155412120.0         367789127.0        2707237480.0          97147054.0        3131372450.0         829345164.0        3691032523.0        3006063034.0        4259826321.0          97147054.0        3131372450.0         829345164.0        3691032523.0        3006063034.0        4259826321.0
Wiener process for Thermostat # 7        1 F T T   3.5060840624591638E-01        1519878176.0        1740745834.0        2262439741.0         691395091.0        3623101781.0         708890616.0         796079799.0        2105258207.0         955365076.0        2923159030.0        4116632677.0        3067683584.0         796079799.0        2105258207.0         955365076.0        2923159030.0        4116632677.0        3067683584.0
Wiener process for Thermostat # 8        1 F T T   3.6353661677550309E-01        2464833211.0        1581995540.0         396676909.0         902303906.0        3518516622.0        2696453429.0        3281794178.0        2616230133.0        1457051261.0        2762791137.0        2480527362.0        2282316169.0        3281794178.0        2616230133.0        1457051261.0        2762791137.0        2480527362.0        2282316169.0
Wiener process for Thermostat # 9        1 F T T   1.6669574490840138E+00        1612991698.0        2530853565.0        1734187022.0        4069349862.0        3606517354.0        2446865153.0        3777646647.0        1837464056.0        4204654757.0         664239048.0        4190510072.0        2959195122.0        3777646647.0        1837464056.0        4204654757.0         664239048.0        4190510072.0        2959195122.0
Wiener process for Thermostat # 10       1 F T T   1.1703094097530124E-01        4103283566.0        2466281256.0        1560255297.0        4196828686.0        4099549732.0        2712286329.0        4215590817.0        3862461878.0        1087200967.0        1544910132.0         936383720.0        1611370123.0        4215590817.0        3862461878.0        1087200967.0        1544910132.0         936383720.0        1611370123.0
Wiener process for Thermostat # 11       1 F T T   8.3042247214180631E-01        2454113928.0        2508086773.0         224247706.0        2856589206.0        2861725189.0        3232862333.0        1683636369.0         362165168.0         814316280.0         869382050.0         980203903.0        2062101717.0        1683636369.0         362165168.0         814316280.0         869382050.0         980203903.0        2062101717.0
Wiener process for Thermostat # 12       1 F T T   1.8334559880224452E+00        3488790967.0        1534236743.0        3973807974.0        3243944782.0        3089235966.0         907610943.0         272317999.0         166758548.0         310112982.0         201045826.0        1680231254.0         118290799.0         272317999.0         166758548.0         310112982.0         201045826.0        1680231254.0         118290799.0
Wiener process for Thermostat # 13       1 F T T   3.2701332277502597E-02         661705986.0        3216106023.0         858588939.0        1811849467.0         778266018.0        3833595884.0        2245755202.0        1652682525.0        2865544364.0         721509566.0         209733568.0         592362218.0        2245755202.0        1652682525.0        2865544364.0         721509566.0         209733568.0         592362218.0
Wiener process for Thermostat # 14       1 F T T   1.4740334517303182E+00        2873225950.0        1430877101.0         773737666.0        1887416717.0        2514322412.0         782641915.0        3003961408.0        3529909391.0          14538032.0        3603919910.0         566682685.0        1235016484.0        3003961408.0        3529909391.0          14538032.0        3603919910.0         566682685.0        1235016484.0