 # Version information for this restart file 
 # current date 2022-11-29 18:54:11.143
 # current working dir /home/yx2892/comp-lab-class/Week12/Runs/water_new
 # Program compiled at                              Sat Dec 12 18:27:15 EST 2020
 # Program compiled on                                         cs001.nyu.cluster
 # Program compiled for                                                nyu-intel
 # Source code revision number                                       git:8c64c6e
 &GLOBAL
   PRINT_LEVEL  LOW
   PROJECT_NAME water_aimd_1ns_every0.5fs
   RUN_TYPE  MD
   WALLTIME 21600
 &END GLOBAL
 &MOTION
   &GEO_OPT
     OPTIMIZER  BFGS
     MAX_ITER  100
     MAX_DR     3.0000000000000001E-03
     &BFGS
     &END BFGS
   &END GEO_OPT
   &MD
     ENSEMBLE  NVT
     STEPS  2000000
     TIMESTEP     4.9999999999999994E-01
     STEP_START_VAL  1585
     TIME_START_VAL     7.9250000000000944E+02
     ECONS_START_VAL    -1.1023558357480233E+03
     TEMPERATURE     3.0000000000000000E+02
     &THERMOSTAT
       TYPE  GLE
       REGION  MASSIVE
       &GLE
         NDIM  5
         A_SCALE     1.0000000000000000E+00
         A_LIST     1.8595758612559999E+02    2.7263853498399998E-01    1.1526100454610001E+01   -3.6414578262600003E+01 \
             2.3173375816020001E+02
         A_LIST    -2.7809524712060002E-01    8.5951591808710006E-05    7.2189048017650004E-01   -1.9844539343859999E-01 \
             4.2409257583420001E-01
         A_LIST    -1.4825808131210000E+01   -7.2189048017650004E-01    1.3590902121280000E+00    5.1498896280349999E+00 \
            -9.9949268450990001E+00
         A_LIST    -1.0372189126880000E+01    1.9844539343859999E-01   -5.1498896280349999E+00    2.6661910891169999E+01 \
             1.1507715495310000E+01
         A_LIST     2.1801346360420001E+02   -4.2409257583420001E-01    9.9949268450990001E+00   -1.1507715495310000E+01 \
             3.0958394565589998E+02
         &THERMOSTAT_ENERGY
              -4.4613911291973042E-03
              -1.5129561700883583E-03
              -3.7033907002629427E-03
               6.7582903136212038E-03
              -9.2145845112892241E-03
               4.6280521150315369E-03
               3.3172584597477577E-03
              -1.2064870667692275E-02
               1.4838977880106460E-02
               4.2541169187569443E-03
               1.0669119276959847E-02
              -2.9729264685902732E-03
              -6.6734765717686891E-04
              -1.0261249248794209E-02
               1.8779504467761482E-03
              -6.0259808837134169E-03
               1.6324660479738382E-02
               6.6285516213679028E-04
               8.0024277917573102E-03
              -6.9096205226063991E-03
               1.6936298436669762E-03
               7.4505551276353953E-04
              -2.2022659580667597E-03
              -1.3877422698951305E-03
              -2.7338462126617505E-03
              -1.1846457766700590E-04
               9.1625819750295310E-04
              -3.9568120022275319E-04
               1.2153695658370984E-02
               1.5429294938324799E-03
               1.9436009126018111E-03
              -3.3017513256161212E-03
               1.5138484380293569E-04
               1.6536859576871919E-03
              -1.4945476556566242E-02
               1.6801460374473595E-02
              -1.1394414060263559E-03
              -2.5452770383906538E-03
              -1.1234847092480588E-03
               6.4034395000912969E-03
              -9.1002399664037864E-03
              -7.9488045813492603E-04
               5.9043245598172167E-03
               4.6197560227355990E-03
              -2.6740207892744783E-03
               2.8083016110430404E-03
              -1.0812861142048169E-03
               4.9983248684719690E-03
               1.0341583201484534E-03
               1.8698925311172792E-03
              -3.4333224816022014E-04
              -4.6722839796160197E-04
              -4.9118143426893574E-03
               1.9100134146258863E-03
              -6.6597403130664980E-03
               5.5744818569557096E-03
              -2.6120469757277146E-03
              -3.5498346571489315E-04
               1.8411811778117223E-03
               1.1484868003563692E-02
               1.0225089634101571E-03
              -1.1907785989223148E-02
               1.8106569564402829E-02
              -3.1750851143440301E-03
               2.7006563605935213E-03
               1.1585378132605495E-03
              -9.4774061759099384E-03
               3.2365537646028707E-03
               2.1120050603044924E-02
               3.8840628186471845E-03
              -5.7516677748516973E-05
              -1.3138225348589432E-02
              -1.0265654303657013E-03
              -4.2936969156191594E-04
              -4.3874569743436437E-04
              -1.3157103090608531E-02
               3.3211763627415528E-03
               3.6741050985743800E-03
               9.9549661858429513E-03
              -1.2390327890470664E-02
               1.9561618529512083E-02
              -4.3216079506044796E-03
               1.3173896113875551E-03
              -2.7050527733774163E-03
               2.0983909995357852E-03
               8.3547854885958079E-03
               1.4513860442521560E-03
              -5.4972594724321533E-03
               2.5521463659568828E-03
               1.6537210303401127E-03
              -2.8968927533639690E-04
              -9.2343573731915023E-03
               4.2220598990422376E-03
              -5.5390551470349920E-03
              -9.1630211552387233E-03
               7.4097874816961675E-03
               8.8516302306369272E-03
              -1.1702538977454533E-03
               3.8042092255017208E-03
               8.7090118058453885E-04
              -3.0175489822033062E-03
              -7.6866265027594567E-03
               3.7546856565568701E-04
              -2.0321733396173008E-03
              -8.3373130316387826E-03
               1.2020567030736283E-02
              -4.4610531940232918E-05
              -3.4569729676285242E-03
               3.0777278829788499E-03
              -5.8663034168652435E-03
               3.9615522755570296E-03
               5.1660114926709152E-03
               7.3137385419633357E-04
               1.3190763321775962E-03
               6.2683084359202654E-03
               5.8181738259555299E-03
              -1.8786647608197617E-02
               3.5402436795151700E-03
               6.7957635046797084E-03
               5.4344550443723751E-03
               1.0496313012515338E-02
              -2.8743615734805493E-03
              -3.5570555906062097E-03
               4.2125989995906417E-03
              -9.0867025589657074E-03
              -2.2928059178232260E-03
               4.7539145535515880E-03
               3.3762636075166752E-04
              -2.3161952406054826E-03
               3.4707706289348081E-03
              -2.9399859670552224E-03
               4.4598082349956714E-03
              -1.0060562762280135E-02
               5.2013280854774193E-03
               4.2007689243715139E-03
              -1.6827799562616481E-04
              -3.6826805659620574E-03
              -4.5533375262171282E-03
               5.2588041177667119E-03
              -3.0491551595305459E-03
               4.5456275791941050E-03
              -3.6561304662398694E-04
               1.4930449514454817E-02
              -6.8467018117702701E-03
              -6.6600859463154293E-03
              -1.3661396840572771E-03
               7.9165211055289859E-03
               5.7497910393758175E-03
              -1.6963345550783419E-03
              -6.2487104011088174E-03
              -1.5867685575277277E-02
               6.9547847521954972E-03
               5.4281640048032716E-03
              -6.5536096636592761E-03
               8.8000727975478827E-03
              -1.9143862060990121E-03
              -1.1483102000912036E-04
               3.9324997512080809E-03
               1.8951195000830117E-03
              -4.2573359189591728E-03
              -4.7037202506081729E-03
              -6.6658578242387041E-03
               9.6994460895419277E-04
               2.5699710375354269E-03
               4.6369304667832709E-03
               1.2111074896330423E-02
              -4.2425837261078660E-03
              -1.0874851000372925E-02
              -6.4038911383249991E-03
               1.0907420176886947E-02
              -2.8956258415543325E-03
              -2.0693827919066985E-03
              -1.4872995352391955E-05
              -5.1929301351325364E-03
              -2.5660913755288211E-03
               5.6819622497999711E-03
              -1.0295912165345415E-02
              -1.6743488915795550E-03
               2.5141185195091155E-03
               7.9340907764788877E-03
              -2.6224635072449485E-03
              -2.2087368839549789E-03
               6.5838926694951937E-03
              -1.7741061463740628E-02
               1.7459344062405496E-02
              -4.4237430967452298E-03
              -5.0393757969766778E-03
              -2.9565419707658202E-03
              -1.4072199127406297E-03
               2.7555682446263796E-04
               2.3102984860207615E-03
              -9.1547916031910507E-04
              -7.8462823384393247E-03
               1.0473550764291642E-02
               6.1357425463759649E-03
              -7.2465245293064952E-03
              -5.7135892651909133E-03
               1.9501194856292969E-03
              -3.2824350975131744E-03
              -1.3600851653716311E-03
              -2.0266418588038505E-03
              -2.0487305685470388E-03
               1.4458688166292571E-02
              -2.6238938533897399E-03
              -9.0010714291368006E-04
              -9.3724777191595075E-04
              -5.3336581068156612E-03
              -2.4240655378650758E-03
               1.8949833875117947E-04
              -3.5587420884417541E-03
               9.4193763854061498E-03
              -6.7410411087359019E-03
               1.3727611910794265E-02
              -9.2313058580324944E-03
               3.8432720342446375E-03
               4.4168395823102951E-03
              -9.7224131624509824E-03
               9.1754078651890211E-03
              -1.8340517871300906E-04
              -1.1342617896145463E-02
              -9.8022704222614681E-04
               6.9974613536370983E-04
              -1.5261295128266741E-03
               9.1962026011329582E-03
               3.1136635297843791E-04
              -4.1118607619777873E-04
              -1.3757649530668048E-03
               9.5125094175536247E-05
              -3.2023639697507122E-03
               9.0099379479707340E-03
              -1.3480967119730233E-02
               2.8716659132396690E-03
               9.5909955906206146E-03
              -5.7942778135237271E-03
               4.9320217538465919E-03
               3.0549714620202087E-04
              -2.9594967379242801E-03
              -9.0930260271531902E-04
               9.4395742941525765E-03
               5.6469572819206918E-03
              -5.6053131171938258E-04
              -4.2051537293938453E-03
              -1.8513254470713762E-03
              -2.6358313664606521E-03
               3.6121844846017663E-03
               3.6035543939049629E-04
               8.2799949034569470E-03
              -3.8908671494286471E-03
              -1.9669823872975837E-03
               2.5801083692061771E-03
               6.1952475603748204E-03
              -7.1715102556680890E-03
              -7.3102457806410196E-03
              -9.4714347328317666E-03
               4.1395595249628441E-03
              -9.7546759452169386E-04
               6.1663629856958885E-03
              -5.3778864510529512E-03
               1.0683092950742538E-02
              -1.6006764106830218E-02
               2.1102733092947742E-02
              -7.7288148952340716E-04
               7.0047187276273369E-03
              -5.8415978823077926E-04
               4.2307316893533996E-03
              -6.0271874442835082E-03
               1.4683627115295236E-03
              -5.7098697426432596E-03
              -3.6202896654560328E-03
               9.2308295154054486E-03
              -3.2619931366890480E-03
              -6.5471034873808296E-03
               1.8619976618873023E-03
               1.2034797281533430E-02
               3.2275581728696719E-03
               5.6775533720014701E-04
              -3.2548294815705300E-02
               1.8373285640329820E-02
               3.6209045149569129E-03
               9.4047269525783326E-03
              -6.4693439704526980E-03
               3.1531653075747889E-03
               1.6544661348262706E-02
              -4.0795234156576904E-03
              -1.0921576263156874E-02
              -5.3804321931266857E-03
               5.2084304088734039E-04
              -5.5517348252755987E-03
              -2.2489015156906471E-03
              -3.3350620120335501E-03
              -1.4891728418933714E-03
               1.6245357936130477E-02
               2.6856436736561622E-04
              -7.1644372807038916E-03
              -2.1725583068264616E-03
               9.0502039329618169E-03
              -8.6757159832118597E-03
              -4.1734577695668887E-03
              -2.3055647298573512E-03
               3.8182958663387394E-04
              -9.2445384612126636E-03
               7.5512773998850776E-03
               2.7347379209751738E-03
               1.9287935210878134E-04
               6.9475875507376446E-03
              -1.3500085583351636E-02
              -2.7625593467130237E-03
              -1.5718973179483071E-03
               3.1056696444634888E-03
               1.5489247823904635E-02
              -6.3171524720292433E-03
              -8.9942334928833443E-03
               4.0156877492349193E-03
               7.0256129462550106E-03
              -5.0941910143933993E-03
               1.2423270644325541E-02
               1.4560458979074465E-03
               4.1488212124145447E-03
              -1.1123638694997186E-02
              -5.6543556681399841E-03
               1.4370620619330025E-02
              -7.4846116433275826E-03
              -9.7927396516729603E-03
               1.6310504107598732E-02
              -4.7210491502118791E-03
               7.4073416005585513E-03
               3.4207874212950819E-03
               3.7430894335610523E-03
              -4.8761595403274301E-03
              -3.5980597074874421E-03
               1.7195688898147751E-03
              -1.9266975074786856E-02
               8.2939685179479351E-03
              -2.8872526155892570E-03
               4.6859755108110785E-03
               2.5348821557126702E-03
               8.8656956196715569E-03
               3.1174207451964966E-03
              -8.7190992383735892E-03
               1.5899627759251807E-02
               3.0548311336146728E-03
              -1.4029625148255382E-02
               2.7543733193587921E-03
              -4.8450550278580865E-03
               1.7865374919979240E-04
              -8.2665730605568817E-03
               1.2041462063305315E-04
              -2.9041763516195526E-03
               2.1557695598549871E-03
               1.9936875303233998E-03
               5.9866571560521749E-03
               5.5744284858597224E-03
              -9.0962695507208566E-03
              -2.0007844962163790E-03
              -9.0175625168031296E-03
               1.3268182652238060E-02
               2.2525032130851688E-04
              -5.6991384677139763E-03
              -5.2554735715476669E-03
               4.7241287182676096E-03
               1.7696464121212691E-03
              -2.8068863675037694E-03
              -1.0728339149590944E-02
              -7.9125961604848763E-03
              -2.0909067590463544E-03
               1.7876414688671786E-02
               4.7163045641004679E-03
              -3.5336201664746235E-04
              -1.0619147761522833E-02
              -2.8477762170585155E-03
               9.6881197952299850E-04
              -6.3650236783030934E-04
               4.1789184706020024E-04
               4.8347205230606805E-03
              -3.1558310844521267E-03
              -3.5044672832227832E-03
               4.0418770646467508E-03
              -5.5795993234742259E-03
              -1.3869745497686289E-03
               3.1647178607104353E-03
               2.5611834953473875E-03
               1.3129358798859953E-03
               2.0266906825284713E-02
              -4.2442368373056443E-03
              -1.8283403266592158E-02
               1.3891659934971072E-02
              -3.6420749938992207E-03
              -5.1924596313575105E-03
              -5.2712486636583384E-03
              -2.5611787165896944E-04
              -1.1590369594768075E-02
               2.2287661911394877E-02
              -3.2657064188874171E-03
              -1.0472165443697556E-03
              -6.1678889391358505E-03
               1.1385742981469471E-03
              -2.9802107266067375E-03
               3.6706367953066891E-03
               4.8380328562581390E-03
              -1.3807534817616540E-02
               3.1166081668063720E-03
               6.6145709568291734E-03
              -1.1056547715664318E-02
               6.7016699110305066E-03
               1.5248857583223181E-02
               3.1535954603750045E-03
               5.0362128221254354E-03
               8.2272030422718117E-03
              -1.0466562816655858E-02
               6.8499666788998277E-03
               6.1081629907285776E-03
               4.5670968028900267E-04
              -7.5189148538337977E-03
               5.8393030050952490E-04
              -7.9776391492842828E-03
              -9.3696126586124441E-05
               5.5596704876649658E-03
               1.5223636930935180E-03
              -6.2712594242449529E-03
               7.8652167828583714E-03
              -1.8248962241873357E-03
              -3.8048608018511250E-05
              -3.3207651687009823E-03
               6.0146676921086161E-04
               1.5955683108780506E-03
              -2.3757000571565123E-03
              -4.6553344933749057E-03
               3.2139153247239122E-03
              -7.6810282907710994E-03
               8.0921918095132436E-04
               1.0744423882793074E-02
              -1.0248842923361978E-02
              -2.9143872264232830E-03
              -4.7034299545827395E-03
               7.0759661716821333E-03
              -1.0623727020354393E-02
               2.1521814578609894E-04
               8.2666004318013662E-03
              -3.4978781825661452E-03
               8.2424576191872587E-03
              -9.6994912136262289E-03
              -1.2756049715374094E-02
              -6.8586517356696095E-04
               4.8473165602071202E-03
              -6.6342938634013655E-03
              -9.7509326456069589E-03
               5.5483894828189922E-03
               6.7641648527134862E-03
               1.0056964516102327E-02
              -6.2248928930171326E-03
              -4.0666301795363353E-03
              -2.3217291775683448E-03
               2.2012452177816344E-03
               2.2911826047189122E-03
              -8.1247826461145634E-03
              -9.3292852476551946E-03
               2.0225077209913872E-02
               3.9012958687290175E-03
              -1.1894214693765313E-02
              -6.3221506942672066E-03
               4.8557401310119633E-03
              -2.4455212304495405E-03
               4.8173079600857859E-03
              -6.0073972310068337E-04
              -5.2609554390820534E-04
               6.9138637943383799E-03
              -8.4979194918940737E-03
               2.7472346657434329E-03
              -2.9456484917133310E-03
               4.9066694827154117E-03
               1.4205075956094848E-03
               9.7953190056532437E-03
              -8.6977293582637157E-04
              -2.8937006815516575E-03
              -1.7487568634969694E-03
               7.4872197545178716E-03
               5.2726746044282295E-03
               7.4115715995518125E-04
              -2.3775499090003455E-03
               2.0972185206692496E-03
              -1.0277130217712043E-02
               9.1462130828490230E-03
              -1.0963090346326710E-03
               5.8093907658462642E-03
              -4.3416537766729699E-03
              -2.1575868783846788E-03
              -3.9878924337384972E-03
              -3.7391416900407872E-03
               1.7646502629875880E-04
               1.1582000776269642E-04
               3.5856090187978338E-04
               4.9644031489833409E-04
               8.7813912318524569E-03
               6.4124681891061268E-03
              -1.1318174182653743E-02
               3.9101790530596736E-03
              -1.5353776708801922E-03
              -5.9111757709497375E-04
               7.2913004148696288E-03
               3.9103005496868657E-03
               3.5771683982364336E-04
              -3.4313677083420858E-03
              -1.1701519200839556E-02
              -5.4411506617090847E-03
               3.1106931895849288E-03
              -4.8440471092409086E-03
               2.3145401164773030E-03
               4.1208998907504932E-04
               1.2867807965554609E-03
               2.2461644716413815E-04
              -3.7263221318657980E-03
               9.5139124033996516E-03
              -1.0659028503228422E-02
              -5.9733540610157516E-04
              -3.9721326040095080E-04
              -4.0906667398880941E-03
              -5.8289003696176938E-03
              -3.3207790500674435E-03
               5.3843503571778121E-03
               2.9543662364208186E-03
               2.9543741028986315E-03
              -8.6970933918603804E-03
              -1.0634027763985227E-02
               1.4753142853928680E-02
               2.5595339761040710E-03
               1.7025705666042499E-04
              -6.1490936246099553E-04
              -1.2616613228277833E-02
               7.0799455772460719E-03
               2.4780190321659025E-03
              -1.2947818312850291E-02
              -7.6598317007263547E-04
              -5.3170442904062086E-03
              -2.6889596282367386E-03
              -5.6216879972926471E-03
               1.1065840353982710E-02
               3.4117709510078959E-03
              -1.0791286262121149E-03
              -7.0335382066092755E-03
              -7.5261323660611270E-04
              -4.3414771871584466E-03
               4.2549419344066839E-03
               2.8665111609353726E-03
               3.4971402786853536E-03
              -1.3823930577033640E-03
               3.1909605739308391E-03
               6.3306034520984626E-03
               8.3955921467070514E-03
              -7.4407560046417746E-03
               1.2800597471264133E-03
               4.4546532042210084E-03
              -1.3324791165563665E-03
              -2.3227448077984482E-03
               1.1087305345263686E-02
              -6.9144510626027098E-03
              -1.2774535169678790E-02
               8.1437027173871814E-04
               6.1489554937227721E-03
              -7.0110600761307570E-04
               1.7202227245602130E-03
               6.9733642791711321E-04
              -8.6222511834904876E-03
               6.1192640795654854E-03
               6.1795959701081756E-03
              -2.4973450860462819E-03
               5.5219387196960134E-03
               2.6293301703084204E-04
              -2.7404202509564782E-03
               3.7234889700868390E-03
              -3.6085674526760330E-03
              -3.0564078048521477E-03
               1.7649594263588050E-03
               2.5987440407705732E-03
              -3.1538979643159402E-03
               9.8531216745462841E-04
              -6.2475983268215967E-05
         &END THERMOSTAT_ENERGY
         &RNG_INIT
Wiener process for Thermostat # 1        1 F T T   4.7708668570015617E-01        4071406545.0        3237817561.0        4156018283.0         287886652.0        1008939610.0        2195589965.0             12345.0             12345.0             12345.0             12345.0             12345.0             12345.0             12345.0             12345.0             12345.0             12345.0             12345.0             12345.0
Wiener process for Thermostat # 2        1 F T T   1.3107605222554084E+00        2682451900.0         142804535.0         551556820.0         384250935.0         904637425.0        3531713680.0        3692455944.0        1366884236.0        2968912127.0         335948734.0        4161675175.0         475798818.0        3692455944.0        1366884236.0        2968912127.0         335948734.0        4161675175.0         475798818.0
Wiener process for Thermostat # 3        1 F T T  -7.6805277664608285E-01        1090064477.0        2482846192.0         243219971.0         600092061.0        1746342012.0        3813311990.0        1015873554.0        1310354410.0        2249465273.0         994084013.0        2912484720.0        3876682925.0        1015873554.0        1310354410.0        2249465273.0         994084013.0        2912484720.0        3876682925.0
Wiener process for Thermostat # 4        1 F T T   9.4218699431076591E-01        1727830391.0        3999301182.0         695580498.0        4019479825.0         945997632.0         755367387.0        2338701263.0        1119171942.0        2570676563.0         317077452.0        3194180850.0         618832124.0        2338701263.0        1119171942.0        2570676563.0         317077452.0        3194180850.0         618832124.0
Wiener process for Thermostat # 5        1 F T T  -9.1082595275300759E-01        1071712871.0        3137956572.0        1933945990.0        3736677909.0        2113856532.0        1860748185.0        1597262096.0        3906379055.0        3312112953.0        1016013135.0        4099474108.0         275305423.0        1597262096.0        3906379055.0        3312112953.0        1016013135.0        4099474108.0         275305423.0
Wiener process for Thermostat # 6        1 F T T  -3.6434742600984754E-01         787787418.0        2880195332.0        3987423785.0        3080634442.0        2293200184.0        1631097565.0          97147054.0        3131372450.0         829345164.0        3691032523.0        3006063034.0        4259826321.0          97147054.0        3131372450.0         829345164.0        3691032523.0        3006063034.0        4259826321.0
Wiener process for Thermostat # 7        1 F T T   5.2209362363590577E-02        1010206612.0         266999562.0        1446496835.0        1168147983.0        2403545213.0        1874824521.0         796079799.0        2105258207.0         955365076.0        2923159030.0        4116632677.0        3067683584.0         796079799.0        2105258207.0         955365076.0        2923159030.0        4116632677.0        3067683584.0
Wiener process for Thermostat # 8        1 F T T  -2.7419913064424671E-02         477288921.0         626587503.0        2914372379.0         543046961.0        2811883996.0        2649320977.0        3281794178.0        2616230133.0        1457051261.0        2762791137.0        2480527362.0        2282316169.0        3281794178.0        2616230133.0        1457051261.0        2762791137.0        2480527362.0        2282316169.0
Wiener process for Thermostat # 9        1 F T T  -6.6613538176382037E-01        2281843574.0         706946937.0        1688905729.0        2868887133.0        3668309619.0        2637520384.0        3777646647.0        1837464056.0        4204654757.0         664239048.0        4190510072.0        2959195122.0        3777646647.0        1837464056.0        4204654757.0         664239048.0        4190510072.0        2959195122.0
Wiener process for Thermostat # 10       1 F T T   4.7729075204828536E-01        1546488230.0        3142897945.0        4271813352.0        3872020608.0        3279772339.0        1324206341.0        4215590817.0        3862461878.0        1087200967.0        1544910132.0         936383720.0        1611370123.0        4215590817.0        3862461878.0        1087200967.0        1544910132.0         936383720.0        1611370123.0
Wiener process for Thermostat # 11       1 F T T   1.4014913177260124E+00        3016834580.0          34401030.0        2215268639.0         710787116.0         914989096.0        2629988204.0        1683636369.0         362165168.0         814316280.0         869382050.0         980203903.0        2062101717.0        1683636369.0         362165168.0         814316280.0         869382050.0         980203903.0        2062101717.0
Wiener process for Thermostat # 12       1 F T T   1.3129383503697716E+00        3146632859.0        1965463438.0        2767355175.0         470353356.0        2790915942.0        1991111752.0         272317999.0         166758548.0         310112982.0         201045826.0        1680231254.0         118290799.0         272317999.0         166758548.0         310112982.0         201045826.0        1680231254.0         118290799.0
Wiener process for Thermostat # 13       1 F T T   1.5094198451250169E+00        2863524976.0         136522173.0        1250591868.0         103015522.0        1859180982.0        2208222937.0        2245755202.0        1652682525.0        2865544364.0         721509566.0         209733568.0         592362218.0        2245755202.0        1652682525.0        2865544364.0         721509566.0         209733568.0         592362218.0
Wiener process for Thermostat # 14       1 F T T  -1.0869341790805456E+00        4108029726.0        2534533637.0        2348414262.0        2127029526.0        1974923349.0         829557516.0        3003961408.0        3529909391.0          14538032.0        3603919910.0         566682685.0        1235016484.0        3003961408.0        3529909391.0          14538032.0        3603919910.0         566682685.0        1235016484.0