 # Version information for this restart file 
 # current date 2022-11-29 16:10:20.838
 # current working dir /home/yx2892/comp-lab-class/Week12/Runs/water_new
 # Program compiled at                              Sat Dec 12 18:27:15 EST 2020
 # Program compiled on                                         cs001.nyu.cluster
 # Program compiled for                                                nyu-intel
 # Source code revision number                                       git:8c64c6e
 &GLOBAL
   PRINT_LEVEL  LOW
   PROJECT_NAME water_aimd_1ns_every0.5fs
   RUN_TYPE  MD
   WALLTIME 21600
 &END GLOBAL
 &MOTION
   &GEO_OPT
     OPTIMIZER  BFGS
     MAX_ITER  100
     MAX_DR     3.0000000000000001E-03
     &BFGS
     &END BFGS
   &END GEO_OPT
   &MD
     ENSEMBLE  NVT
     STEPS  2000000
     TIMESTEP     4.9999999999999994E-01
     STEP_START_VAL  500
     TIME_START_VAL     2.4999999999999795E+02
     ECONS_START_VAL    -1.1023558357480233E+03
     TEMPERATURE     3.0000000000000000E+02
     &THERMOSTAT
       TYPE  GLE
       REGION  MASSIVE
       &GLE
         NDIM  5
         A_SCALE     1.0000000000000000E+00
         A_LIST     1.8595758612559999E+02    2.7263853498399998E-01    1.1526100454610001E+01   -3.6414578262600003E+01 \
             2.3173375816020001E+02
         A_LIST    -2.7809524712060002E-01    8.5951591808710006E-05    7.2189048017650004E-01   -1.9844539343859999E-01 \
             4.2409257583420001E-01
         A_LIST    -1.4825808131210000E+01   -7.2189048017650004E-01    1.3590902121280000E+00    5.1498896280349999E+00 \
            -9.9949268450990001E+00
         A_LIST    -1.0372189126880000E+01    1.9844539343859999E-01   -5.1498896280349999E+00    2.6661910891169999E+01 \
             1.1507715495310000E+01
         A_LIST     2.1801346360420001E+02   -4.2409257583420001E-01    9.9949268450990001E+00   -1.1507715495310000E+01 \
             3.0958394565589998E+02
         &THERMOSTAT_ENERGY
              -5.0135734775932361E-03
              -5.3873679029284218E-04
              -1.3717603081453288E-03
               2.2392162884621817E-03
              -5.5006263897906006E-03
               6.8038941724643054E-03
              -3.4504609116710375E-03
              -3.3320736870994013E-03
               4.9215557393981662E-03
               5.8394368919661597E-04
               6.7959962854220951E-03
              -3.2281847399842859E-03
               1.5076288888063866E-03
               9.0792944705647336E-05
              -2.2353808994774000E-03
              -4.0611450811530959E-03
               5.5415582657201649E-03
              -4.0424075863635016E-03
               5.5483172530460707E-03
              -2.7439077891515313E-03
               7.2956358377538688E-04
              -3.6957605446627522E-03
              -1.5978770291292083E-03
               2.8558354125798229E-03
              -1.0470037046529752E-03
              -2.6818208898118580E-03
              -1.2328586038977778E-04
               3.8731788970885988E-03
               2.1697077485789236E-03
               6.0611384717888979E-04
              -5.4143734422175413E-03
               2.7314948239627384E-03
               3.8176574909797797E-03
               2.0804586220762926E-04
              -2.1773553076162547E-03
               4.1773804584811702E-03
              -1.3914435909335031E-03
               9.8055112805990282E-04
               7.2162321287620919E-04
              -3.0301615680274428E-03
              -8.1856705932824216E-04
              -1.1793756557292099E-03
               6.1025252236533874E-04
               2.4130561811591183E-03
              -5.7909316978905969E-03
               3.1027094147194974E-03
              -4.3123418520762307E-04
               3.3738165784630604E-03
              -4.2064479289277319E-03
              -1.0298414815390923E-03
               1.6521801312598626E-03
              -6.4926703973659369E-03
               1.2413519126049618E-03
               6.9915294237591161E-03
              -5.4841586669828780E-03
               3.2559862277748105E-03
              -7.6460145994320479E-04
              -1.8017113557005969E-03
               1.6245314126478007E-03
               2.8914987667440174E-03
               1.7255143069839580E-03
               2.2432773760689704E-03
               4.1688555473869630E-03
               1.6651550184225263E-03
              -1.6462307582441342E-03
              -2.2838600408041955E-03
              -5.3441448196329105E-03
               1.5088147224035916E-03
               2.0331210709920730E-03
               4.9022795303359156E-03
              -1.2233953292412319E-03
              -1.6682848323092687E-03
              -1.1490580621758295E-03
               1.7196152621690561E-03
              -1.7659103985674623E-03
              -4.5068216174029008E-03
               3.7570886908208155E-03
               1.7227902696710306E-03
               6.3484143856602409E-03
              -3.0961844319774756E-03
              -2.5707878999197144E-03
              -6.5120413595944472E-04
               1.3604051905071054E-03
              -3.5556006599453929E-03
               2.1994993300113574E-03
              -4.5652028416353144E-04
              -4.8814864783423466E-03
               1.8851596450212469E-03
               2.6028745830436110E-03
              -2.1662733036886730E-03
               3.2184776635296791E-03
              -4.9833948969487257E-03
               2.0885054045270564E-03
              -3.2438017804825663E-03
              -7.0688110574650539E-03
               3.6288819052071914E-03
               3.1288929337397959E-03
               2.5008297328287681E-04
               1.0857210315631598E-03
               8.4747766996225355E-05
              -7.9719357549082662E-04
              -3.8146083762960843E-03
              -1.8548076885773527E-03
              -1.4247245707849304E-03
               1.9521451400254196E-03
               5.8170396578510353E-03
              -1.1298234683682763E-03
              -2.5570013905334295E-03
               4.2317308428707007E-03
              -3.6672278222255324E-03
               3.6189014443055957E-03
              -8.0597693092010426E-04
               2.5424835562527265E-03
               1.0549961791651008E-03
              -1.9097332824076288E-03
               1.0314226188053884E-02
              -1.5302531287901587E-02
               2.3311586881036893E-03
              -1.9589007692890920E-04
               7.3244963360586052E-05
               3.0521502383937058E-03
               3.1583902496228095E-03
              -3.3108743323841555E-03
              -3.0798698330644827E-03
              -5.1361555410288926E-03
               1.8241000094801048E-03
              -4.7060153372117675E-04
               3.1987362763256279E-03
               3.6212358594150877E-03
               1.3105817011574148E-03
              -6.4475019092248673E-04
               9.8660096636451382E-04
              -1.3420723762201678E-03
               2.6718081100980664E-03
              -3.4385753997317682E-03
               2.8197638081543211E-04
              -2.6949410378446742E-03
              -2.6235133707379408E-04
               6.7860697637316613E-04
              -5.3220303568904774E-03
               7.7819084163776872E-03
               1.0677254840050325E-03
               9.8310048133304524E-04
              -1.6542170182540601E-03
              -7.3940252523298905E-04
              -2.7217688173260808E-03
               3.5712210589610620E-04
              -8.6850552032842953E-04
              -6.4206960389252604E-04
               6.5023669941260184E-03
              -2.6767732431969690E-03
               5.7306446804538411E-04
              -6.2201673476602599E-04
              -7.2251302715896598E-04
               9.5419649184492257E-04
              -1.7984151284491144E-03
               3.1566542776521518E-03
               1.7939515087198254E-03
              -3.3715988267670801E-03
               2.4425429408493973E-03
              -4.4372911460474661E-03
              -1.4139310859915448E-03
              -1.3088109905525418E-03
               1.7475027686522174E-04
               2.8195170593329415E-03
               5.9589710101894625E-03
               2.9702200035858547E-03
              -5.5296896621371151E-03
              -8.7290635952319683E-03
               1.0567993011601407E-02
               1.7318000546903917E-04
              -6.2281841614199979E-04
              -4.4995748865175568E-04
               2.8500075248400381E-03
              -2.4775972264185651E-03
               1.9955352140201181E-03
              -5.5285802042168587E-04
               4.3901899141132964E-03
               2.5466524452094816E-03
               6.0066083200275211E-04
              -1.7310925120115530E-03
               1.3260483483986979E-03
               2.6759931160575188E-03
              -8.1337055745603504E-03
               1.7560100098205885E-03
              -5.1841946846411331E-04
              -1.1965967197152660E-03
               7.6889295685398963E-03
              -2.7367518549413841E-03
              -1.2919997827330258E-03
               4.8121589169819912E-04
              -2.3773152868116704E-03
               4.3035191676383698E-03
              -2.0053503818443308E-03
               5.5739520047366851E-04
              -2.8557649183475441E-03
              -1.2399560765920610E-03
               8.8599555392727177E-04
              -2.0245919705582246E-03
              -1.1485285366669433E-04
               8.9444098991848880E-04
              -1.2442867191321712E-03
               6.2407824275757303E-03
              -3.8911152678268814E-04
              -7.5601434181491803E-03
              -9.9675678410435491E-04
              -2.7532886667343752E-03
              -7.3756497446328840E-04
              -1.4328565298757986E-03
               2.1174725794653390E-03
              -1.5367423648157412E-03
              -1.0439234018352845E-04
               6.4114403471160070E-03
              -7.0051749288997907E-03
               6.4346953650867419E-03
               6.2384112845086407E-04
              -2.9044032121051640E-03
               2.7995336044538614E-03
              -3.3523159488359466E-04
              -3.9987523858538987E-03
               1.6239643523955046E-03
              -1.6403036361534650E-03
              -2.6191566776078011E-03
              -1.4916183504579117E-04
              -1.1586367374151825E-03
               1.0787643880414194E-03
               8.2978920582232418E-04
               5.6310816285516530E-03
              -5.2037657851298578E-03
               4.0857426670473538E-03
              -1.0411125159817188E-02
               3.5596021689718559E-03
               8.7850352006863704E-03
              -3.6950841367166102E-03
              -1.1455616495750498E-03
              -1.9208516137838739E-03
              -2.8072132741892479E-03
               1.6094033007534275E-03
               4.8769207539140682E-03
               1.2354788419631554E-03
              -1.7842668637536078E-03
              -1.3448790693288298E-03
               3.6685941415752783E-03
               3.8349552535118566E-03
              -2.7804462915629819E-03
               2.1497923498664585E-03
              -1.1370133273459889E-03
              -1.3291536055749105E-03
               1.0838164763534077E-03
              -2.9695190047868106E-03
               1.5123393553597474E-03
               1.0193932023782964E-03
              -2.6813327311391252E-03
              -1.7902797553014274E-03
               1.3960361209132425E-03
              -6.6483533984335111E-03
               5.5470253169190619E-03
               1.2613779930400017E-03
               1.6712463739558914E-03
              -4.5430634972258290E-03
               5.2782787212288431E-03
               2.4421712828928879E-03
               1.1532856138385308E-03
               3.7374891261775348E-04
               2.8390671742423596E-04
              -5.3316676143084600E-03
              -2.0292277765983557E-03
               2.5413022764330761E-03
              -3.3821208311319950E-03
               3.4028053895071879E-03
              -1.2721935259852614E-03
              -1.9043569962740622E-03
               1.3336151865172648E-03
               2.9983949742352573E-03
               1.1955089572832623E-03
              -2.0404081266415276E-03
              -7.6760340316279251E-03
               2.9102107687009843E-03
              -4.8719309020161181E-03
               2.9351120436442932E-03
              -1.8576010320365630E-03
               3.9674849202455623E-03
               3.1813192092786432E-03
              -2.8466363770750696E-03
              -5.4270521359511539E-03
               3.1936525314032391E-03
              -1.3694348301158447E-03
              -3.8368931533593314E-03
              -3.3595937419210794E-03
               2.3850829137395196E-03
               1.0153713923606821E-03
               3.1344545549722531E-03
               2.2203597011474143E-03
              -2.5094112715342474E-03
               1.0103112400649153E-03
               1.6146323517897405E-03
              -6.7877943956343081E-03
              -1.8143133397813161E-03
               6.6933238226581353E-04
              -2.0872981774231912E-03
              -4.8896253895006044E-03
               5.3341468004324310E-03
               4.5921556860425055E-03
               2.8278480672611192E-04
               2.6188484984846759E-03
              -2.2089482448340958E-03
              -1.7090860081153635E-03
               9.6227561409865448E-04
               6.4384045773262732E-04
               4.6898802840909326E-03
              -5.8862958659612564E-04
              -9.4240715377858861E-03
               4.2496073642384708E-03
               5.1386816853657199E-03
               2.3658409852425131E-03
               4.2905153054034360E-03
               8.4635209992681474E-04
               4.0269326179776721E-03
              -2.0773721765418958E-03
              -2.3497120162051894E-03
               4.8493704079974843E-03
              -3.2562822176053427E-03
              -6.7216575141379395E-03
               9.3240392053516169E-03
              -8.8675005493037238E-04
               2.9396707348543060E-03
              -1.0460126845570970E-03
               3.8072753039334727E-03
               5.5281621771298634E-04
              -4.7731468499528692E-03
              -3.1673788825616785E-03
              -8.2684274145399823E-03
               8.3803396107898186E-03
              -3.1206303651112291E-04
               1.9239186497231645E-03
              -2.1213004529646957E-03
               1.1436865786240678E-02
               2.0811411752542424E-03
              -4.4274345122389822E-03
              -2.9543399902029316E-03
               3.5438974927258808E-03
               1.5528542949715918E-04
               1.9479854645303302E-03
               1.8639215880431178E-03
              -8.8603180252391246E-04
              -6.6589015169149545E-03
               6.9315198195523623E-03
               3.6023424241211032E-04
               1.2132382092803805E-04
              -5.8612033573968176E-03
               3.3551582480985803E-03
               2.2216182919691193E-03
              -6.2206887604383046E-03
               2.1543057750417678E-03
              -2.5083372253601600E-03
               7.4053601147732948E-03
              -4.4484112156929828E-03
              -4.5755671510967083E-04
              -5.6905302407049612E-03
               9.9296954804507908E-03
              -1.3470972825397505E-03
               2.3029170460409142E-04
              -4.6603537466030145E-03
              -7.9339800504748398E-03
               2.0443754709041119E-03
               1.1776807944362639E-02
               2.1383869457028111E-03
              -1.6901188284643280E-03
              -3.2718490375068720E-03
               6.3388365199386126E-04
               1.8329935387620298E-03
              -2.1509490074892363E-03
              -8.6374152226809629E-03
              -4.9897459068788197E-03
               6.0021152784828337E-03
              -3.1201311029967378E-03
               9.4354637780093113E-05
               6.5217695698724983E-03
              -2.2636387238477024E-03
              -1.0771742013726219E-03
              -1.6002671009576579E-03
               3.4823238177880203E-03
               9.7671994488364999E-03
              -8.6753262658827916E-05
              -1.0918147651361641E-02
               7.8803938321419520E-03
              -1.4047821456292548E-03
              -5.7370576465071970E-03
              -1.0399466385787258E-03
              -1.4190633101949538E-03
               2.4189456493314146E-03
               3.0891168761043755E-03
               7.6263201823050550E-04
               2.2067076535709374E-03
              -3.7951758424725622E-03
              -3.0433167086832908E-03
              -1.1154183681861070E-03
               2.6655164281063478E-03
              -2.5019013270834514E-04
              -2.7239675726721986E-03
              -1.4738602306780771E-03
               9.1971557295189403E-03
              -9.8577493158442369E-03
               3.0308652334428187E-03
               6.8965490283678108E-03
               3.3504314236084803E-04
              -1.4637178792029385E-03
               5.9415709858722460E-03
              -8.8633435983331982E-03
               2.0074064153148530E-03
               3.1392849246910772E-03
              -6.3289936437245303E-04
              -2.2281239050055122E-03
               5.3854345404347670E-03
              -6.4593333364702825E-03
              -3.9546277205020422E-03
               1.8864767141935949E-03
              -6.7355874995560436E-03
               2.4503925032107084E-03
               1.2453712888052382E-02
              -3.2789488290458539E-03
              -4.4109245559036938E-04
               2.1798858630612873E-03
               3.9425804365129241E-03
              -4.0275313798638062E-03
              -2.7115835707177231E-03
              -3.6115698864315638E-03
               3.5597060797378731E-03
               2.7448384273360020E-04
              -2.2964820438004471E-03
               6.4468480677348360E-04
              -3.6247974488548213E-03
               2.3475359487579628E-03
              -3.3839624735435793E-03
               9.2663811897090770E-04
              -6.6865422196085659E-03
               2.0721285979675061E-04
               5.2851117285747920E-03
               3.6148319254026844E-03
               4.4566779720212005E-03
              -3.5087662571838922E-03
              -6.0759826986078701E-03
              -3.0818797436485694E-04
               4.9759817370400184E-03
               9.0016862258341409E-04
               1.2150428452498247E-03
               5.9714193819956755E-04
              -4.9958881432929942E-03
               6.2372992984993892E-03
              -1.2219378120815836E-03
              -2.9182647587717141E-03
              -3.4467509444672329E-03
               4.9678849443235999E-03
              -3.2574162571970032E-03
              -4.7588112107513555E-03
               3.5871331943842393E-04
               8.8234472074520467E-03
              -8.8669682946640764E-04
              -2.9212036789131469E-03
              -5.1400652907747596E-04
               3.5127876787156673E-03
              -2.6458780941417083E-03
              -2.0994122997933938E-03
              -5.6227506279743645E-03
               2.1295646558387397E-03
               5.2313770883912858E-04
              -1.1837933214630535E-03
               3.2534539170908116E-03
              -4.4328184384929119E-03
               1.4715292060060929E-03
              -1.3671964717621478E-03
               6.5832297023947321E-03
               4.9162476272658520E-06
              -1.2617506236835435E-03
               8.1033896558128544E-03
               1.2909980536986022E-03
               3.6204213033202304E-03
              -2.3960761446673192E-04
              -2.5398273135634883E-03
               1.4072917067488454E-03
              -5.3785316013498993E-04
              -4.3287777008946052E-03
              -5.3082661048617190E-04
              -1.0294146881771522E-03
               3.1114828380601734E-04
               3.0270532941237087E-04
              -2.0082812104205328E-03
              -4.6187724187444447E-03
              -9.5000912510145386E-04
              -6.0248943057313650E-04
               2.2375777284423500E-04
              -1.6871761382402884E-03
              -1.0692225066322008E-02
               7.1325591794040681E-03
               1.7586659970170544E-03
               8.6454359334922062E-04
              -1.2932606869358115E-03
              -1.6037740065651300E-03
               3.3521084517641906E-03
               2.0350384431808270E-03
               3.1242517486335750E-03
               2.7920986887037032E-03
              -5.9561701171433933E-03
              -3.4292564668986780E-03
               1.4126387983324118E-05
              -2.7560692986384550E-03
               2.5816834760596409E-03
              -2.4142831589323284E-03
               9.6099718598156283E-04
               8.4891473109500733E-04
               5.3069353600025183E-04
               1.1809477662361234E-02
              -1.1944750566882050E-02
              -3.4735165468402292E-03
               1.5993464530962267E-03
               2.2361859322466470E-03
              -5.5453700900174622E-03
              -7.4540397039014276E-04
               7.2335007566912851E-04
              -1.7742453469172432E-03
               4.5577612302224900E-03
              -8.2588862527158136E-03
              -1.2704481551742558E-03
               5.6220074204934821E-03
               1.2698079340820816E-03
              -1.2420523128434989E-03
              -5.2106242975940003E-03
              -2.9687326169460576E-03
              -2.3654820024690678E-04
               3.7682044831231706E-03
              -4.1016653925942271E-03
              -5.9961609190530192E-04
              -3.1262632821489546E-03
              -3.5046216535206264E-03
               4.5270078109171637E-03
              -2.1193886945670443E-03
               2.1490596758961325E-03
              -1.7079675926008149E-03
              -2.0521434742208286E-03
              -1.0980180677369286E-03
              -1.8502718292750006E-03
               2.8298782053740382E-04
               3.7046935666919718E-03
               1.1958656981053501E-04
               2.9852746932430762E-03
              -2.0751880436428549E-03
               5.3989384427252890E-05
               3.6585070625921993E-03
              -3.6473691294022798E-03
              -1.0340359106585715E-03
              -2.5147645907623714E-03
              -4.8184733958346153E-03
               2.3150720255042416E-03
               1.0401868335164668E-03
               5.2173630965333658E-04
              -8.5468470133590931E-03
               2.7744086085909839E-03
               8.8579235574853150E-03
              -3.8418976537732321E-05
              -1.8935183437110003E-03
              -8.9259203267630111E-04
              -3.1243710636236930E-03
              -3.8968425715935306E-04
               4.1850498441558751E-03
              -4.5315491425940071E-04
               3.8905271680949090E-03
              -4.5696589078493332E-04
               2.6960266371005947E-03
              -1.1791382095454042E-03
              -2.9840203773327948E-03
              -5.8277544955022695E-03
               1.1035411240300753E-03
               4.5810598566660629E-03
               4.2346381557732213E-03
              -4.0542068674382084E-03
              -1.6995643773995313E-03
         &END THERMOSTAT_ENERGY
         &RNG_INIT
Wiener process for Thermostat # 1        1 F T T  -1.5505429657892764E+00         661802595.0        2026459976.0        3136775027.0        3268219721.0        1056216878.0        3744216088.0             12345.0             12345.0             12345.0             12345.0             12345.0             12345.0             12345.0             12345.0             12345.0             12345.0             12345.0             12345.0
Wiener process for Thermostat # 2        1 F T T   1.5766939834860993E-01        2521559082.0        1979391111.0        3972826820.0        2839528192.0        3960449033.0        3051881342.0        3692455944.0        1366884236.0        2968912127.0         335948734.0        4161675175.0         475798818.0        3692455944.0        1366884236.0        2968912127.0         335948734.0        4161675175.0         475798818.0
Wiener process for Thermostat # 3        1 F T T  -1.6802103653762466E+00        2464096834.0        3454226368.0         668358963.0        3607867155.0        2139338144.0        1695442074.0        1015873554.0        1310354410.0        2249465273.0         994084013.0        2912484720.0        3876682925.0        1015873554.0        1310354410.0        2249465273.0         994084013.0        2912484720.0        3876682925.0
Wiener process for Thermostat # 4        1 F T T  -9.2120442907176847E-01        3007810664.0         626544053.0           5688727.0        2019501767.0        4050809287.0        2188826537.0        2338701263.0        1119171942.0        2570676563.0         317077452.0        3194180850.0         618832124.0        2338701263.0        1119171942.0        2570676563.0         317077452.0        3194180850.0         618832124.0
Wiener process for Thermostat # 5        1 F T T   1.9586792436148486E+00        3119398129.0        2238966874.0        1731687009.0        1729823850.0        3912388439.0         182524877.0        1597262096.0        3906379055.0        3312112953.0        1016013135.0        4099474108.0         275305423.0        1597262096.0        3906379055.0        3312112953.0        1016013135.0        4099474108.0         275305423.0
Wiener process for Thermostat # 6        1 F T T  -2.2012851380256623E-01         527820745.0        2447393615.0         338698828.0         653439858.0         976211817.0        3944196308.0          97147054.0        3131372450.0         829345164.0        3691032523.0        3006063034.0        4259826321.0          97147054.0        3131372450.0         829345164.0        3691032523.0        3006063034.0        4259826321.0
Wiener process for Thermostat # 7        1 F T T  -1.2191095662093037E-02         167278661.0        2992638024.0        1197931920.0         124710794.0         889033703.0        2194094787.0         796079799.0        2105258207.0         955365076.0        2923159030.0        4116632677.0        3067683584.0         796079799.0        2105258207.0         955365076.0        2923159030.0        4116632677.0        3067683584.0
Wiener process for Thermostat # 8        1 F T T  -2.6373530393371375E-01        2923147749.0        3809475671.0         892364519.0        3114385888.0        3523415917.0        3402922821.0        3281794178.0        2616230133.0        1457051261.0        2762791137.0        2480527362.0        2282316169.0        3281794178.0        2616230133.0        1457051261.0        2762791137.0        2480527362.0        2282316169.0
Wiener process for Thermostat # 9        1 F T T  -1.2388913960989989E+00         276694386.0        3384434371.0        2194062143.0        3864498526.0        2498625561.0        4174179731.0        3777646647.0        1837464056.0        4204654757.0         664239048.0        4190510072.0        2959195122.0        3777646647.0        1837464056.0        4204654757.0         664239048.0        4190510072.0        2959195122.0
Wiener process for Thermostat # 10       1 F T T  -6.9271884074884071E-01         298842605.0        4183294382.0        3769908432.0        1623977651.0        3452521187.0         349927101.0        4215590817.0        3862461878.0        1087200967.0        1544910132.0         936383720.0        1611370123.0        4215590817.0        3862461878.0        1087200967.0        1544910132.0         936383720.0        1611370123.0
Wiener process for Thermostat # 11       1 F T T  -3.9199517781213300E-01        1183014876.0        2469777470.0        2706060047.0        1374668043.0         490283634.0         131761905.0        1683636369.0         362165168.0         814316280.0         869382050.0         980203903.0        2062101717.0        1683636369.0         362165168.0         814316280.0         869382050.0         980203903.0        2062101717.0
Wiener process for Thermostat # 12       1 F T T   1.2248374085476998E+00         744312290.0        1838623065.0        1895433531.0        2930723882.0        3034111406.0        1223209339.0         272317999.0         166758548.0         310112982.0         201045826.0        1680231254.0         118290799.0         272317999.0         166758548.0         310112982.0         201045826.0        1680231254.0         118290799.0
Wiener process for Thermostat # 13       1 F T T   1.6053528300026945E-02         341235087.0         365462780.0         607175623.0        3292057964.0        1611524565.0         256574977.0        2245755202.0        1652682525.0        2865544364.0         721509566.0         209733568.0         592362218.0        2245755202.0        1652682525.0        2865544364.0         721509566.0         209733568.0         592362218.0
Wiener process for Thermostat # 14       1 F T T   1.9177864877034673E-01        4070869957.0         930768838.0         917159503.0        2019387027.0        1778861740.0        4261924026.0        3003961408.0        3529909391.0          14538032.0        3603919910.0         566682685.0        1235016484.0        3003961408.0        3529909391.0          14538032.0        3603919910.0         566682685.0        1235016484.0