 # Version information for this restart file 
 # current date 2022-11-29 18:41:25.465
 # current working dir /home/yx2892/comp-lab-class/Week12/Runs/water_new
 # Program compiled at                              Sat Dec 12 18:27:15 EST 2020
 # Program compiled on                                         cs001.nyu.cluster
 # Program compiled for                                                nyu-intel
 # Source code revision number                                       git:8c64c6e
 &GLOBAL
   PRINT_LEVEL  LOW
   PROJECT_NAME water_aimd_1ns_every0.5fs
   RUN_TYPE  MD
   WALLTIME 21600
 &END GLOBAL
 &MOTION
   &GEO_OPT
     OPTIMIZER  BFGS
     MAX_ITER  100
     MAX_DR     3.0000000000000001E-03
     &BFGS
     &END BFGS
   &END GEO_OPT
   &MD
     ENSEMBLE  NVT
     STEPS  2000000
     TIMESTEP     4.9999999999999994E-01
     STEP_START_VAL  1500
     TIME_START_VAL     7.5000000000000762E+02
     ECONS_START_VAL    -1.1023558357480233E+03
     TEMPERATURE     3.0000000000000000E+02
     &THERMOSTAT
       TYPE  GLE
       REGION  MASSIVE
       &GLE
         NDIM  5
         A_SCALE     1.0000000000000000E+00
         A_LIST     1.8595758612559999E+02    2.7263853498399998E-01    1.1526100454610001E+01   -3.6414578262600003E+01 \
             2.3173375816020001E+02
         A_LIST    -2.7809524712060002E-01    8.5951591808710006E-05    7.2189048017650004E-01   -1.9844539343859999E-01 \
             4.2409257583420001E-01
         A_LIST    -1.4825808131210000E+01   -7.2189048017650004E-01    1.3590902121280000E+00    5.1498896280349999E+00 \
            -9.9949268450990001E+00
         A_LIST    -1.0372189126880000E+01    1.9844539343859999E-01   -5.1498896280349999E+00    2.6661910891169999E+01 \
             1.1507715495310000E+01
         A_LIST     2.1801346360420001E+02   -4.2409257583420001E-01    9.9949268450990001E+00   -1.1507715495310000E+01 \
             3.0958394565589998E+02
         &THERMOSTAT_ENERGY
              -4.0924490821493617E-03
              -1.3172971804181126E-03
              -1.5138453939524347E-03
               6.9077660966092146E-03
              -1.2693032048417435E-02
               5.7230697173496926E-03
               2.6330271902784874E-03
              -9.2023216312592838E-03
               1.4071245325330902E-02
               4.2195347237979162E-03
               9.5056456473419544E-03
              -4.4386863993499739E-03
               8.4652775617052129E-04
              -1.0213934288128782E-02
              -6.5335349755086896E-04
              -4.0464716388455314E-03
               1.4775502569340930E-02
               1.0925117764969609E-03
               7.6109421302053499E-03
              -5.8129338533015867E-03
               1.7864126653616291E-03
               1.6960702868824031E-03
              -1.0249261715442159E-03
              -3.3811479038146615E-04
               8.0561917773273032E-05
               1.2576775964486834E-03
               1.1363360906655445E-03
               2.0071048501608805E-04
               1.3254617442580911E-02
               2.3406115471177390E-03
               2.6255370874250870E-03
              -2.5318251446518375E-03
              -3.0771420282453294E-03
               3.1315462961814334E-03
              -1.6824268652484396E-02
               1.8101738323781036E-02
              -4.3826623665185575E-04
              -2.0386393234556777E-03
               1.3124241286753447E-03
               6.2065362461059693E-03
              -8.1316880232983179E-03
              -2.8295738295479253E-03
               7.7896460713240629E-03
               2.7891769499828922E-03
              -3.3040868333551027E-03
              -9.6738509071310776E-05
              -6.1648565630688032E-04
               4.1212476389747028E-03
              -8.3019758392080957E-04
               2.8196185213215028E-03
              -5.8987955042494040E-04
              -2.0821162993479515E-03
              -3.6882898649638791E-03
               2.8981703321267292E-03
              -6.3373669742387987E-03
               4.5114424108063014E-03
              -2.7358062711437168E-03
              -1.1708101099189132E-03
               8.2564764609083002E-04
               1.0790330096437758E-02
               1.9857752670405173E-03
              -1.3271864770769174E-02
               1.7222478340108285E-02
              -3.0024740211398821E-03
               4.1890926904159763E-03
               2.7681771317231081E-04
              -1.0023418585676923E-02
               3.7419145987912686E-03
               2.1181827064944987E-02
               3.1211654942232912E-03
              -1.7938361066628977E-03
              -1.2374668708703584E-02
              -1.3598307829724638E-03
               2.8914127348295745E-04
              -5.2800735822294137E-04
              -9.7678887782545812E-03
               4.3864234761649889E-03
              -1.6152927771883776E-03
               8.1692422258564691E-03
              -1.2914344237019537E-02
               1.9854496500485243E-02
              -3.5708820124169742E-03
               7.5352029872901790E-04
              -1.5302748165001677E-03
               5.2774201059188420E-03
               5.0466536927697321E-03
              -2.1897988009684133E-03
              -4.0065999180541314E-03
               4.4503890986135322E-03
               2.2997178333479364E-03
               1.0606355629745848E-03
              -8.5201973722274244E-03
               3.7172353191176678E-03
              -7.2830159536855935E-03
              -9.6269473074712883E-03
               8.5621420017267039E-03
               1.0580537638029979E-02
              -4.3776757388172593E-03
               4.9863943218527258E-03
               2.3332165750784796E-03
              -3.4575135006225471E-03
              -6.1253001724824539E-03
               9.1655239163107062E-04
              -1.8285989355601346E-03
              -3.6388951410411727E-03
               1.2129783961655179E-02
               2.8582037192653807E-04
              -2.4378532167289944E-03
               2.6820705806293254E-03
              -5.3165967827128371E-03
               3.4093289491518566E-03
               4.3249257205059052E-03
               1.3558293070836571E-03
               1.5250293441756893E-03
               6.3139316658144600E-03
               4.9087065027159406E-03
              -1.4765799790559390E-02
               3.1468500973065674E-03
               6.8069870254278686E-03
               3.3365534865923419E-03
               1.0891586778897020E-02
              -4.7051965083764911E-03
              -3.0854498425275921E-03
               4.3312966627350093E-03
              -7.3726021213108145E-03
              -1.6498717353118741E-03
               6.4721827444630354E-03
               2.3249072569845615E-04
              -2.1024602239985844E-03
               5.7220989119804305E-04
              -2.1315390069377559E-03
               4.9610894075207568E-03
              -9.1230018742709130E-03
               6.1825503807965585E-03
               3.6402545591730988E-03
              -3.6331618970438000E-04
              -2.8390700975162585E-03
              -4.3582248558476011E-03
               5.2841575728008452E-03
              -2.3639740806715190E-03
               6.1959057837689003E-03
              -8.4518516055180962E-05
               1.6030344364887181E-02
              -5.6966690703728149E-03
              -4.9980532314476897E-03
              -2.4159840087710255E-03
               8.4702634853140776E-03
               3.9803556847429807E-03
               6.3583928655915989E-04
              -5.0722747048177769E-03
              -1.2796089782383391E-02
               3.1398075697737370E-03
               4.6500276954118099E-03
              -8.1157347867913537E-03
               9.2148059892198202E-03
              -1.3854385400592407E-03
               4.3901348050940248E-04
               6.9583947605569244E-04
               2.5460929455023743E-04
              -2.2318338107587296E-03
              -1.6017733990193865E-03
              -5.2052213957608550E-03
              -5.2463713413360992E-04
               1.1508773733572013E-03
               3.4402797416007640E-03
               1.0725730304848569E-02
              -3.4331737276184012E-03
              -6.2934119521388734E-03
              -6.7705773058977905E-03
               1.0348934882155469E-02
              -1.8593163707266575E-03
              -2.7634176275926352E-03
              -7.3734028079348673E-04
              -3.9880283127056125E-03
              -2.4513520763773744E-03
               5.4812528357407828E-03
              -9.1435263131721557E-03
              -4.6585020033830960E-04
               8.9116360211452994E-04
               5.8460927645674569E-03
              -3.8572451106870854E-03
               1.1219713501167889E-04
               5.9886837384311069E-03
              -1.7845448329775606E-02
               1.2061174188629183E-02
              -9.2103187252835439E-05
              -2.4867392781226776E-03
              -1.5843658346994436E-03
              -2.0025905771090986E-03
              -7.0349070119968819E-05
               1.2112311296414973E-03
              -4.1372125311314490E-05
              -8.4161491546026514E-03
               9.4031225296047731E-03
               6.1606424698450110E-03
              -7.2847917783705292E-03
              -4.8510161396922487E-03
               3.3260849563627793E-03
              -2.2569919032798254E-03
              -1.5413939934303109E-03
               4.2603470174565729E-05
              -2.7371076195438033E-03
               1.1583328662899583E-02
              -2.2491763815755776E-04
              -4.5021382170047954E-03
               1.4257870274284555E-04
              -5.2050858310583687E-03
              -1.0504960228109142E-04
               1.0013978520900500E-03
              -1.2709148306002860E-03
               9.4451610244134909E-03
              -8.5834511507792057E-03
               1.4264752059223477E-02
              -8.5077413767601466E-03
               3.7524066808447957E-03
               4.3124168938848059E-03
              -9.3402932460898112E-03
               7.1034207226584201E-03
              -1.5409306136344842E-03
              -1.3388910912237453E-02
               2.5812173586989211E-03
              -1.6061314328833583E-04
              -4.9564556378599734E-04
               7.4832189480659277E-03
               4.4461595780499974E-04
               6.1975802958997867E-04
               6.5381717851192649E-04
               3.4109375517394670E-04
              -4.2731801783951412E-03
               6.3640275067399698E-03
              -1.0534110140150479E-02
               2.7859091683183502E-03
               8.9846905689739322E-03
              -8.2549439228066460E-03
               4.0705122284523413E-03
              -2.3791374706468409E-03
              -2.5300701359635891E-03
              -4.7123815995756501E-04
               8.9064598925207173E-03
               5.5690378082649677E-03
              -3.1098724000045011E-04
              -4.3716182228893648E-03
              -1.6449348690017775E-03
              -2.0380097386690698E-03
              -1.3977268155251129E-03
               3.2352666865287263E-04
               7.8933963499407452E-03
              -4.2670845216683682E-03
              -1.1973408317866767E-03
               3.1825486775946361E-03
               3.2545215684944883E-03
              -4.4258167220312204E-03
              -7.1363155214869342E-03
              -7.8072387908010429E-03
               3.7638112010324543E-03
              -3.1073978466656469E-03
               7.0994256090579312E-03
              -5.0472433908861167E-03
               9.4059929338742351E-03
              -1.2333903921259479E-02
               1.8256254119662727E-02
               1.0188982144667513E-04
               6.3180653336638191E-03
               1.4520179039698602E-03
               2.6453536973725556E-03
              -1.0227592427576943E-02
               4.5730605044118720E-03
              -3.1530099604312584E-03
              -3.6187149933177604E-03
               8.1727059589353900E-03
              -5.1143069224608212E-03
              -3.8960143389279627E-03
               4.5170863083693431E-03
               1.4209657636990057E-02
              -2.9838896870568754E-03
               2.3137066613969893E-03
              -2.9667069436455917E-02
               1.7028740987800408E-02
              -4.3527904951400450E-04
               9.0867882256876632E-03
              -7.7658819206879622E-03
               2.8141813747388084E-03
               1.5083310414724894E-02
              -3.6313765666356507E-03
              -9.6930328802878538E-03
              -7.0591594531451540E-03
               9.7329003338638743E-04
              -4.6652533391743816E-03
              -3.0331483741455924E-03
              -2.4054630370603986E-03
              -6.3769614978487861E-04
               1.5489930115219963E-02
               1.3069924245112097E-03
              -6.9372788200126462E-03
              -1.9392589317277940E-03
               3.8783939202017871E-03
              -1.1502862442850554E-02
              -4.4517039730121201E-03
              -2.0868334492212875E-03
              -4.4916865223146489E-03
              -7.9538038050931265E-03
               8.5486368849126571E-03
               3.1416536764736387E-03
              -2.8759390980966602E-03
               8.0862457723994315E-03
              -1.1889521963303814E-02
              -6.0329622323169671E-04
              -2.5287205536308113E-03
               1.8239178666852856E-04
               1.5456751468289568E-02
              -8.2317805433314885E-03
              -1.0414922330319277E-02
               7.9574956934286827E-03
               8.8258791064218609E-03
              -5.3639827714798147E-03
               1.2819301803128385E-02
               1.7228801536742686E-03
               4.1993001920836654E-03
              -1.0714211603633566E-02
              -5.5824633030114867E-03
               1.3659611760872955E-02
              -5.6274597192117479E-03
              -1.3093096764742974E-02
               1.4818435490621342E-02
              -3.9396267924198727E-03
               5.6716210863547991E-03
               4.0346783556901604E-03
               8.7018279125955912E-04
              -6.2062738385093947E-03
              -8.0923480410368606E-03
              -1.6000813197636526E-03
              -1.4187828439579584E-02
               1.3672165934186634E-02
              -1.1656713927289905E-03
               5.1588747723883008E-03
               2.7353988386477975E-03
               1.3168041227746568E-02
               3.7228236626219123E-03
              -1.0011690124742097E-02
               1.3532862575244940E-02
               3.0928161803167680E-03
              -1.2983784929331827E-02
               2.8353786850676193E-03
              -3.2293531633495196E-03
               4.5161024957299115E-04
              -9.5591653035638682E-03
              -9.7542323248750039E-04
              -1.9756489580269424E-04
               1.2060676825047202E-03
               3.8478160392274733E-03
               3.6944709360859605E-03
               5.2428511775213906E-03
              -9.9899318443793742E-03
              -4.2188665824983887E-04
              -7.7637988202768887E-03
               1.3162699736939952E-02
              -2.6264087398976559E-03
              -3.5151392538219808E-03
              -3.6012532419647299E-03
               3.4504358754029441E-03
               7.8346109998536553E-04
              -1.7639271710834308E-03
              -1.1482359147853408E-02
              -6.3160806751835679E-03
              -1.5257115139330731E-03
               1.6759567532509088E-02
               5.4427063909638189E-03
              -4.4632449137773835E-03
              -8.6447247254401033E-03
              -2.7399408130672079E-03
               2.9380732375865692E-03
              -1.5840813301167406E-03
              -1.2222351652939846E-03
               3.5386665806966845E-03
              -6.5841560772023121E-04
              -1.8262173000266990E-03
               2.9724930591923091E-03
              -3.5273515331116466E-03
              -2.4619079411972744E-03
               2.9812956629291661E-03
               3.3851394786444588E-03
              -3.9892009821070606E-03
               2.1244182100881841E-02
              -1.0101741810226712E-03
              -1.8539355237572955E-02
               1.5644526126590213E-02
              -3.7848363387528203E-03
              -7.4912726193327251E-03
              -5.2685107332270447E-03
               5.5153477195196330E-04
              -1.0589465752639284E-02
               2.2855173876980155E-02
              -4.4164090361203372E-03
               1.1886078664482278E-05
              -8.0356875592066217E-03
               1.7661739420218199E-03
              -4.2783764328553084E-03
               2.4620054474401515E-03
               4.6633071346518810E-03
              -1.5056268287299212E-02
               6.1151911136946195E-03
               6.4011724532383732E-03
              -1.2723594514895520E-02
               8.7134278540674549E-03
               1.3735558122614698E-02
               1.6216731910796039E-03
               4.7792729747478599E-03
               7.1132783787666324E-03
              -9.6927023893521036E-03
               5.9960582225703661E-03
               6.5754317818847718E-03
              -1.1444900597206589E-03
              -8.1114177398226486E-03
              -6.3745890828261441E-04
              -6.6829123656549942E-03
              -8.8576628952467340E-04
               5.7914406193140134E-03
               2.8488834694171601E-03
              -9.5940048729058064E-03
               9.7233236968239239E-03
              -3.1526143462993210E-03
              -2.4278979101882500E-04
              -1.5471888110841518E-03
              -1.4466162855387440E-04
               1.0937395888572356E-03
              -6.2940903039611395E-04
              -3.6458744907571705E-03
               1.6497372470889449E-03
              -5.0490458598098026E-03
               2.4577069952799561E-04
               1.0324588988188357E-02
              -1.0140961423797402E-02
              -2.6891061757124217E-03
              -4.3815227541175710E-03
               6.8111547821101135E-03
              -1.0654505802832077E-02
              -2.4439977093932445E-03
               8.4724424989829211E-03
              -1.9827475139013364E-03
               8.2198740932242515E-03
              -8.0680095299182127E-03
              -1.2305364990172813E-02
              -6.9345453665187618E-05
               5.4025203651014535E-03
              -8.8697185917659179E-03
              -7.6110397250463563E-03
               1.6298120817761737E-03
               9.2895098600871799E-03
               9.0154620187487284E-03
              -4.6613830446620074E-03
              -4.3516573544201687E-03
              -5.0538689223051016E-03
               1.7428253077529830E-03
              -1.5172060660537001E-04
              -5.2647547963435518E-03
              -1.1673087378836660E-02
               2.1692975702966234E-02
               2.8931282797388298E-03
              -1.1917525083724694E-02
              -6.0588221483443214E-03
               4.6331415779807808E-03
              -3.5341535285918903E-03
               3.6107644563866123E-03
              -9.0446516385874799E-04
               5.8834956819720917E-04
               5.8388330475507367E-03
              -7.6755367891267919E-03
               1.7857951229103752E-03
              -3.8970381319132002E-03
               2.3723806155956069E-03
               1.1271458627068907E-03
               9.2617965512892444E-03
               5.1335456074948216E-04
              -2.0463605586271199E-03
               9.4045989753733248E-04
               9.5741248540068304E-03
               6.6270388665620626E-03
              -9.0381497801839112E-05
              -3.8814714597509453E-03
               2.1918481402179654E-03
              -1.1241707773776626E-02
               1.2098343362470551E-02
               3.3804417962111580E-04
               6.1359553202131245E-03
              -7.0233997266044975E-03
              -4.6094613253716630E-04
              -3.3544278056676239E-03
              -3.3963171676808729E-03
              -1.1419978042897989E-03
               1.1863821934482544E-05
               3.1502082548527535E-04
               2.7169860236229862E-04
               7.7947742192579113E-03
               6.6637834786507193E-03
              -1.1088298383556490E-02
               2.7957204421386718E-03
               9.2447595374755599E-04
              -3.1384893529736379E-04
               4.2267315513559679E-03
               7.0579984457154353E-03
               1.2784514954530580E-03
              -2.5738873925082803E-04
              -8.8594473994728570E-03
              -5.9429126184514462E-03
               3.1168766598600006E-03
              -4.3858838148514209E-03
               1.4390899710679916E-03
               1.1076857090153349E-03
               3.5389301233005738E-03
               8.7954114045196230E-04
              -3.8464076298480583E-03
               1.0904566003572990E-02
              -1.3142490609615157E-02
              -4.7205732468347798E-04
               1.6466780947272115E-05
              -1.6866649077296072E-03
              -8.2301516363443659E-03
              -2.9796008760051250E-03
               8.3251222593454036E-03
               3.6513249438146068E-04
               3.5036167341402549E-03
              -8.9494738154121262E-03
              -1.0221085835876500E-02
               1.5255483845384466E-02
               3.4200254240182807E-03
              -1.2013829037484231E-05
              -1.5158149447113062E-03
              -1.4943278678439774E-02
               7.9053693954218383E-03
               1.7504608195765602E-03
              -1.3668252083982133E-02
               1.1433390576617310E-03
              -5.8070931059024528E-03
              -3.7690384155145635E-03
              -3.0509372571614771E-03
               1.3014629039806385E-02
               4.0541898436481806E-04
              -2.2678376604116958E-03
              -6.1722402033510407E-03
              -6.6335041502680052E-04
              -6.5367780825075883E-04
               3.1348103498026912E-03
               1.2833605117799453E-03
               3.5997176971326872E-03
              -5.0214473655418737E-04
               1.7413857068515779E-03
               1.0211147776027397E-02
               4.0719859831836180E-03
              -6.5150850331215614E-03
               1.0399554020782394E-03
               5.2460977157841151E-03
              -2.8047959000829670E-03
              -1.5315683380809292E-03
               1.0635240715656556E-02
              -5.9932977533305879E-03
              -1.3189926643523347E-02
               2.0169647696763899E-03
               4.3876504967640109E-03
              -5.6272382842617531E-04
              -3.8549647779409106E-05
              -1.0526208433895273E-03
              -5.5452399789132764E-03
               5.9860522930890421E-04
               2.9806421870266857E-03
              -2.6469740361839481E-03
               8.4882603705929167E-03
               6.4986650611298315E-04
              -9.9746428095696320E-05
               3.1742567045637345E-03
              -3.3002871865098430E-03
              -2.9860211456661642E-03
               2.5937999511332719E-03
               3.9676963924369126E-03
              -6.1212575236056104E-04
              -3.0013238238346977E-04
              -1.8889363175704406E-03
         &END THERMOSTAT_ENERGY
         &RNG_INIT
Wiener process for Thermostat # 1        1 F T T   1.0570193072987602E-01        2554248455.0        3733268398.0        2096963647.0         915983833.0        1292997779.0         989563289.0             12345.0             12345.0             12345.0             12345.0             12345.0             12345.0             12345.0             12345.0             12345.0             12345.0             12345.0             12345.0
Wiener process for Thermostat # 2        1 F T T  -5.0729818522276993E-01         187792199.0        1332764939.0        1272087322.0         282682701.0         988697858.0        4086000388.0        3692455944.0        1366884236.0        2968912127.0         335948734.0        4161675175.0         475798818.0        3692455944.0        1366884236.0        2968912127.0         335948734.0        4161675175.0         475798818.0
Wiener process for Thermostat # 3        1 F T T   8.9774137220556466E-02        3755061031.0        1753083868.0        1351179932.0         343881147.0        3312142877.0        1244557929.0        1015873554.0        1310354410.0        2249465273.0         994084013.0        2912484720.0        3876682925.0        1015873554.0        1310354410.0        2249465273.0         994084013.0        2912484720.0        3876682925.0
Wiener process for Thermostat # 4        1 F T T   2.1447125495896904E-01        2430503636.0         902227617.0        3039217662.0         205693714.0        2375800914.0        4220709598.0        2338701263.0        1119171942.0        2570676563.0         317077452.0        3194180850.0         618832124.0        2338701263.0        1119171942.0        2570676563.0         317077452.0        3194180850.0         618832124.0
Wiener process for Thermostat # 5        1 F T T  -7.4974817695318574E-01        3949927612.0        4293465109.0         224208328.0         677588237.0        2173092809.0        2514687022.0        1597262096.0        3906379055.0        3312112953.0        1016013135.0        4099474108.0         275305423.0        1597262096.0        3906379055.0        3312112953.0        1016013135.0        4099474108.0         275305423.0
Wiener process for Thermostat # 6        1 F T T  -2.3195632299180402E+00        4147399821.0         968438491.0         174961265.0         382156541.0        3672303660.0        2385050302.0          97147054.0        3131372450.0         829345164.0        3691032523.0        3006063034.0        4259826321.0          97147054.0        3131372450.0         829345164.0        3691032523.0        3006063034.0        4259826321.0
Wiener process for Thermostat # 7        1 F T T  -8.3038096976097500E-03        3725962017.0        3124905816.0        1692649901.0        3685368087.0         990134651.0        3321809881.0         796079799.0        2105258207.0         955365076.0        2923159030.0        4116632677.0        3067683584.0         796079799.0        2105258207.0         955365076.0        2923159030.0        4116632677.0        3067683584.0
Wiener process for Thermostat # 8        1 F T T   7.2955713326517235E-01        1426374835.0        1022225665.0        3431852557.0        2945126969.0        1347790872.0        2047858768.0        3281794178.0        2616230133.0        1457051261.0        2762791137.0        2480527362.0        2282316169.0        3281794178.0        2616230133.0        1457051261.0        2762791137.0        2480527362.0        2282316169.0
Wiener process for Thermostat # 9        1 F T T  -8.3876742673612970E-01        3633457436.0         863053678.0         665967915.0         928783000.0        4027924725.0        3556250224.0        3777646647.0        1837464056.0        4204654757.0         664239048.0        4190510072.0        2959195122.0        3777646647.0        1837464056.0        4204654757.0         664239048.0        4190510072.0        2959195122.0
Wiener process for Thermostat # 10       1 F T T  -6.7138423863751628E-01        3282585865.0         909372753.0         488063086.0        2442536289.0         174422437.0         477575080.0        4215590817.0        3862461878.0        1087200967.0        1544910132.0         936383720.0        1611370123.0        4215590817.0        3862461878.0        1087200967.0        1544910132.0         936383720.0        1611370123.0
Wiener process for Thermostat # 11       1 F T T  -7.2169956836733329E-02        3039538231.0          25912629.0        1608189467.0        1823124278.0        2331127605.0        2449500504.0        1683636369.0         362165168.0         814316280.0         869382050.0         980203903.0        2062101717.0        1683636369.0         362165168.0         814316280.0         869382050.0         980203903.0        2062101717.0
Wiener process for Thermostat # 12       1 F T T  -6.7722400494670465E-01        2762226669.0        4262778377.0        2250707948.0        3120407528.0        3704866228.0        1185520965.0         272317999.0         166758548.0         310112982.0         201045826.0        1680231254.0         118290799.0         272317999.0         166758548.0         310112982.0         201045826.0        1680231254.0         118290799.0
Wiener process for Thermostat # 13       1 F T T  -7.3817531449270457E-01        3689403510.0         367299738.0        3636386471.0        1925893934.0        3355800516.0        3520562622.0        2245755202.0        1652682525.0        2865544364.0         721509566.0         209733568.0         592362218.0        2245755202.0        1652682525.0        2865544364.0         721509566.0         209733568.0         592362218.0
Wiener process for Thermostat # 14       1 F T T  -1.1382067441366517E+00        3364395678.0        3315693013.0        2647598954.0        3098747655.0        1899656659.0         516312086.0        3003961408.0        3529909391.0          14538032.0        3603919910.0         566682685.0        1235016484.0        3003961408.0        3529909391.0          14538032.0        3603919910.0         566682685.0        1235016484.0