 # Version information for this restart file 
 # current date 2022-11-29 18:54:28.112
 # current working dir /home/yx2892/comp-lab-class/Week12/Runs/water_new
 # Program compiled at                              Sat Dec 12 18:27:15 EST 2020
 # Program compiled on                                         cs001.nyu.cluster
 # Program compiled for                                                nyu-intel
 # Source code revision number                                       git:8c64c6e
 &GLOBAL
   PRINT_LEVEL  LOW
   PROJECT_NAME water_aimd_1ns_every0.5fs
   RUN_TYPE  MD
   WALLTIME 21600
 &END GLOBAL
 &MOTION
   &GEO_OPT
     OPTIMIZER  BFGS
     MAX_ITER  100
     MAX_DR     3.0000000000000001E-03
     &BFGS
     &END BFGS
   &END GEO_OPT
   &MD
     ENSEMBLE  NVT
     STEPS  2000000
     TIMESTEP     4.9999999999999994E-01
     STEP_START_VAL  1587
     TIME_START_VAL     7.9350000000000932E+02
     ECONS_START_VAL    -1.1023558357480233E+03
     TEMPERATURE     3.0000000000000000E+02
     &THERMOSTAT
       TYPE  GLE
       REGION  MASSIVE
       &GLE
         NDIM  5
         A_SCALE     1.0000000000000000E+00
         A_LIST     1.8595758612559999E+02    2.7263853498399998E-01    1.1526100454610001E+01   -3.6414578262600003E+01 \
             2.3173375816020001E+02
         A_LIST    -2.7809524712060002E-01    8.5951591808710006E-05    7.2189048017650004E-01   -1.9844539343859999E-01 \
             4.2409257583420001E-01
         A_LIST    -1.4825808131210000E+01   -7.2189048017650004E-01    1.3590902121280000E+00    5.1498896280349999E+00 \
            -9.9949268450990001E+00
         A_LIST    -1.0372189126880000E+01    1.9844539343859999E-01   -5.1498896280349999E+00    2.6661910891169999E+01 \
             1.1507715495310000E+01
         A_LIST     2.1801346360420001E+02   -4.2409257583420001E-01    9.9949268450990001E+00   -1.1507715495310000E+01 \
             3.0958394565589998E+02
         &THERMOSTAT_ENERGY
              -4.7587984383939729E-03
              -1.3130565635328442E-03
              -3.5849234833944064E-03
               7.0065143304350822E-03
              -9.5820710040375023E-03
               4.7441625428996520E-03
               3.1849573120262247E-03
              -1.1433530450645742E-02
               1.4603248815602425E-02
               3.9573557931646347E-03
               1.0552966463431417E-02
              -3.4090926352105160E-03
              -6.9013196526508864E-04
              -9.0239229922179885E-03
               1.9707934826847301E-03
              -5.8935971289304787E-03
               1.6682604341899464E-02
               7.5925492967628203E-04
               8.6170084703796040E-03
              -7.9728653723641144E-03
               2.1491890291231446E-03
               8.9918015243966296E-04
              -2.1558563633729310E-03
              -1.1499098501918305E-03
              -1.3295796007203895E-03
              -2.6682831323766323E-05
               8.5165848371772271E-04
              -3.7107963040867499E-04
               1.2149539003776091E-02
               1.7191863358342416E-03
               2.4671982529112517E-03
              -3.3635869137484736E-03
              -2.0788037576670824E-05
               1.3096981945389637E-03
              -1.5006324296486181E-02
               1.6443542237929123E-02
              -1.1634844820567641E-03
              -2.5452317221672802E-03
               3.7872540971787779E-04
               6.2468881955998132E-03
              -8.8405787440085214E-03
              -6.1094691315809072E-04
               4.8260842980642499E-03
               4.5060803017636496E-03
              -2.4994251017868758E-03
               2.8387221927857519E-03
              -2.9393379955218930E-03
               5.2619964855036162E-03
               9.8806237258305517E-04
               2.0567134466474325E-03
              -9.5872498042530387E-04
              -1.3212672391702790E-04
              -4.2463209834629444E-03
               1.8001887918791715E-03
              -6.3246277456555453E-03
               5.4324825669926453E-03
              -2.3173649988013226E-03
              -6.7614503269610088E-05
               2.2299029669595669E-03
               1.1509630686937380E-02
               9.4458624762590586E-04
              -1.1784589245698970E-02
               1.8137856275827643E-02
              -3.0758421925437254E-03
               2.7620495741184697E-03
               1.0213891745860667E-03
              -1.0392345669412453E-02
               3.4096866172401660E-03
               2.1535703261689482E-02
               3.4764937063675055E-03
              -4.5831512679318288E-04
              -1.4264747873148308E-02
              -1.1663181805907207E-03
              -1.9468808547005439E-04
              -3.7479044222850252E-04
              -1.3173104405098187E-02
               3.4261700225548730E-03
               3.6652455677305680E-03
               9.9051776523509383E-03
              -1.2244805055382573E-02
               1.9314683845537320E-02
              -4.6532869308146948E-03
               1.2369266212058116E-03
              -1.1412273119411696E-03
               1.6811060813118387E-03
               8.4953929332437228E-03
               1.3478576732727976E-03
              -5.6721104719946319E-03
               2.7380859319309108E-03
               1.9462661919311187E-03
               7.6587327818351732E-05
              -9.3145737200381901E-03
               4.2793365393348371E-03
              -5.3644509338162420E-03
              -9.6044636878130953E-03
               7.2746413702906481E-03
               8.9240143627172374E-03
              -9.7916557942598088E-04
               3.8060611243591600E-03
               9.5146468543830254E-04
              -3.1371362687265744E-03
              -7.9738833767114669E-03
               6.3696719723092376E-04
              -2.0340254332472281E-03
              -8.3246356122136569E-03
               1.3268509796935692E-02
              -1.5933715194627044E-05
              -3.5206174710595579E-03
               3.2815901630385193E-03
              -5.8993838127083453E-03
               3.7110791110248537E-03
               5.0192291880077613E-03
               5.4480967261038606E-04
               1.2379647235625981E-03
               6.2386234236676283E-03
               5.7499781761503471E-03
              -1.8632169505606637E-02
               3.3711312180275343E-03
               6.6436224322714513E-03
               5.3713287562990684E-03
               1.0570419794035757E-02
              -2.2189390226960565E-03
              -2.6214830718589589E-03
               4.4587967584189866E-03
              -8.5448138680008969E-03
              -2.1507691775207840E-03
               4.6523118611628087E-03
               9.9002423905986407E-04
              -1.4979315471038744E-03
               3.5594545999207030E-03
              -2.9241859572549751E-03
               4.6642126733933064E-03
              -1.0015247227381469E-02
               4.5450069945298932E-03
               4.0925927999355743E-03
              -1.7630701611220831E-04
              -4.0919148979851544E-03
              -4.8219478874804650E-03
               5.3936893123032945E-03
              -2.9836357818386200E-03
               4.4906104665791095E-03
              -3.5638839677075771E-04
               1.5397601803895202E-02
              -7.1787703569135145E-03
              -6.4042591758247487E-03
              -1.4165209170029414E-03
               7.6251359352314746E-03
               4.7788514054106892E-03
              -1.5612735242632788E-03
              -6.7346277855347379E-03
              -1.6245825316300578E-02
               6.9004316145699230E-03
               5.4999588937620159E-03
              -7.3906216341084775E-03
               9.0908619376905055E-03
              -1.9664026935545444E-03
               6.5470258732192024E-05
               4.0459371250148347E-03
               1.9620213377154541E-03
              -3.8985572752404732E-03
              -4.3949926240758842E-03
              -6.3651247281040525E-03
               1.0650181071963345E-03
               2.5452615931283846E-03
               5.6915342099263929E-03
               1.2356356220887321E-02
              -4.2797340292638113E-03
              -1.1017579723343662E-02
              -5.9371995664273605E-03
               1.1386653880683143E-02
              -2.8053744279520898E-03
              -2.4399197647896904E-03
              -8.4839523904493570E-04
              -4.8636733574762003E-03
              -2.5044589259732787E-03
               5.7848926039670455E-03
              -1.0314204015109359E-02
              -1.5031646789366417E-03
               2.4889390174451780E-03
               7.8918739218123927E-03
              -5.4405673425443066E-03
              -2.4881989113257341E-03
               6.5278761761221882E-03
              -1.7555202330374546E-02
               1.7320424724522127E-02
              -1.8434165268668597E-03
              -4.4324260430960629E-03
              -2.9910310935378184E-03
              -1.1521634553545246E-03
              -5.1523125954405855E-05
               2.6527885153794528E-03
              -1.5658955991686443E-03
              -8.5106389303827301E-03
               1.0331655997418143E-02
               6.5905626881912274E-03
              -7.7532251914077446E-03
              -5.6704325797902796E-03
               1.7139415194956699E-03
              -3.0480933728827403E-03
              -1.1910025038205376E-03
              -2.1018483169579520E-03
              -1.8296375890358250E-03
               1.5411534670118736E-02
              -2.3522701140549127E-03
              -1.1869253308324525E-03
              -8.2211717116339176E-04
              -5.3676497392809745E-03
              -2.9268308818248471E-03
               5.5036173733632456E-04
              -3.7119843950305324E-03
               9.3436271303033083E-03
              -7.0423979928259679E-03
               1.3851794606821635E-02
              -9.1694199353830087E-03
               4.6917056708171900E-03
               4.7622477905420483E-03
              -9.7136304319551739E-03
               9.4891694816417391E-03
               3.8984656861888240E-04
              -1.1363966782946312E-02
              -9.2454982749300813E-04
               7.6983525627668582E-04
              -8.2103473195426781E-04
               9.0103509393878196E-03
               2.5487146424301886E-04
              -7.8106664883776386E-04
              -9.6062262350367323E-04
               9.6992336685736320E-05
              -3.4500255363827323E-03
               9.1498366858831157E-03
              -1.3535490749211941E-02
               3.0621423983065699E-03
               9.4834227361765226E-03
              -5.7687666614373795E-03
               3.8369574725580389E-03
               3.3680234669598093E-04
              -2.7557096511107207E-03
              -8.0800136867898950E-04
               9.6680332992903559E-03
               5.6122815916409136E-03
              -5.7318146100692293E-04
              -4.3513539756774499E-03
              -1.8709227636472645E-03
              -2.4224787928569902E-03
               3.8567464507212367E-03
               3.4131025476933627E-04
               8.3432772689254978E-03
              -4.0304674846772985E-03
              -1.4888832726647190E-03
               2.7083120770124355E-03
               5.5878697924844995E-03
              -7.2152593989890110E-03
              -7.3678518506349183E-03
              -8.4598976171596819E-03
               3.7021449581192598E-03
              -1.1685423198912331E-03
               6.1732831441120269E-03
              -5.6039797171175314E-03
               1.0755813921215126E-02
              -1.6151473320796958E-02
               2.0719441876567234E-02
              -7.6995830997014260E-04
               7.1048727317606052E-03
              -1.5539600791244109E-03
               4.1406917202728563E-03
              -6.6374425719945111E-03
               2.0605593423544148E-03
              -5.4770436244419296E-03
              -4.0074942327915078E-03
               9.1146977472373724E-03
              -3.1785880582205143E-03
              -6.1661296700726174E-03
               1.9086202231242890E-03
               1.1910535800413622E-02
               3.2553316847618928E-03
               3.9948183835592118E-04
              -3.2647370716540051E-02
               1.7997111593994471E-02
               1.9336729299392597E-03
               9.2479044201202384E-03
              -6.1579424877021916E-03
               3.8282191249210352E-03
               1.6195327970102064E-02
              -4.5839247869288785E-03
              -1.0558758914931961E-02
              -5.1525453327663723E-03
               4.5215862571797508E-04
              -5.6200356315396051E-03
              -2.3254419237063047E-03
              -3.1055480285787857E-03
              -1.2238713580242221E-03
               1.6082362277941478E-02
               5.2411164142799607E-04
              -7.0617769678680562E-03
              -2.3281496248130423E-03
               9.0403926792059046E-03
              -8.4475627048940082E-03
              -4.4482841146787988E-03
              -2.1203708887371346E-03
              -1.0369764428074732E-03
              -9.2770767653289170E-03
               6.7165856085152085E-03
               2.6646786800542249E-03
              -2.9629348934898732E-04
               6.8033826428311565E-03
              -1.3556782993235938E-02
              -2.7443908696306528E-03
              -2.3253197450674376E-03
               2.7414861508861322E-03
               1.4395895812514780E-02
              -6.3182127454437147E-03
              -8.9738122770534178E-03
               4.0483425200072420E-03
               6.9215458316679596E-03
              -5.1298605386813721E-03
               1.2610461496517034E-02
               1.5269413020985066E-03
               4.1369676593184081E-03
              -1.0847338035099519E-02
              -5.9708571660363153E-03
               1.4251866571826583E-02
              -6.6989702807109443E-03
              -9.8573809674463286E-03
               1.5399509488470719E-02
              -4.4359300020908581E-03
               7.3412279895681675E-03
               2.9172908566010023E-03
               3.8509684210961750E-03
              -4.8696023520180508E-03
              -3.5381038214683529E-03
               1.7241686924601596E-03
              -1.8847333644509717E-02
               9.4091904730802360E-03
              -2.4976316296141002E-03
               4.6117175314880198E-03
               1.8571529199656615E-03
               9.8623960193678743E-03
               3.0533557915227863E-03
              -8.7810159110705104E-03
               1.6311750332872615E-02
               3.0608642197571482E-03
              -1.3541436457782786E-02
               2.9544210878663974E-03
              -4.8161102368725270E-03
               4.5263762268731023E-05
              -8.1650938799375360E-03
               1.8019372805859674E-05
              -2.5407717529253790E-03
               2.3379709739694871E-03
               1.7865553357206399E-03
               5.9612471942611985E-03
               5.4644246177334415E-03
              -9.1381476297589630E-03
              -1.8881201700140019E-03
              -1.0732036043931215E-02
               1.3585853597066615E-02
              -9.5883259562797290E-04
              -5.6606883275821841E-03
              -5.5537032314718487E-03
               5.0965458514854898E-03
               1.9491358035853641E-03
              -2.7854898936244010E-03
              -1.0531341353381976E-02
              -7.7167491998251410E-03
              -2.9298797854639281E-03
               1.7606953836719653E-02
               4.7221883260995592E-03
              -5.2776950622599372E-04
              -1.0059927090736463E-02
              -3.2019789812785080E-03
               1.0977371318584826E-03
              -8.3392363730654681E-04
               3.7780512567924988E-04
               4.9162939883279329E-03
              -2.4863594423723198E-03
              -3.7087896169482981E-03
               4.2731238443403123E-03
              -5.6071131787192611E-03
              -1.6740358531596843E-03
               3.0742008174432520E-03
               2.6395260302569620E-03
               1.3548630656278786E-03
               1.9945328283112327E-02
              -3.8011447086265739E-03
              -1.9027003124917619E-02
               1.3729590342242729E-02
              -3.6497765958863155E-03
              -5.6653854918997442E-03
              -5.2135467252303423E-03
              -1.1436532546191590E-04
              -1.0928213707860306E-02
               2.2550412681007499E-02
              -3.5679643898189769E-03
              -1.1900743661185113E-03
              -6.2645220435378424E-03
               1.0157467818977576E-03
              -2.8923924836099365E-03
               3.7679956321543147E-03
               4.6819429471710618E-03
              -1.3940368673161386E-02
               3.2232172503123702E-03
               6.8124186529763733E-03
              -1.0256913928384868E-02
               6.9118712527082397E-03
               1.5241560510483552E-02
               3.1596940317818044E-03
               4.9166123525179756E-03
               8.0269594388965634E-03
              -1.0297698102381308E-02
               6.8272267387442225E-03
               7.2552294805950466E-03
               5.0444384049829730E-04
              -6.7806704649068543E-03
               5.5526809088754373E-04
              -7.7291599086292146E-03
              -5.5462387703487611E-04
               5.8801076393377553E-03
               1.1551687011831760E-03
              -7.1556612735224050E-03
               7.9634429801704962E-03
              -1.5485603948832540E-03
               3.0924369574346079E-05
              -3.4495017117599810E-03
               5.0723726493050137E-04
               9.7396225776532719E-04
              -9.1836542164444688E-04
              -4.5452070827630680E-03
               3.2273502494663789E-03
              -6.8331711639492898E-03
               9.1104779089329975E-04
               1.0871430721934409E-02
              -1.0266922606744503E-02
              -2.8937090817964663E-03
              -4.6998127415390552E-03
               7.0909274544646980E-03
              -1.1129253051159050E-02
               2.1514028693624525E-04
               8.3813088294859214E-03
              -3.0876111609708262E-03
               7.0299199220813079E-03
              -9.9456274257559950E-03
              -1.2476890465935222E-02
              -7.0116476522678601E-04
               4.8051784233662034E-03
              -6.6496160064928823E-03
              -9.6238332200351603E-03
               4.7331420573760805E-03
               6.3791923590000906E-03
               1.0480218951170728E-02
              -5.1137323074945430E-03
              -3.9691964770616241E-03
              -2.4200671103521100E-03
               2.0753159664224628E-03
               2.6755898035224143E-03
              -8.1155911952106360E-03
              -6.9968228257155695E-03
               1.9674289056358249E-02
               4.0869815685188023E-03
              -1.1991399884752145E-02
              -6.3418836212235548E-03
               4.5465395061434818E-03
              -2.2693693794826027E-03
               4.8163518255023479E-03
              -7.6186334923127865E-05
              -4.5335717164623286E-04
               6.9702351042222783E-03
              -7.5434244911588870E-03
               2.8032770230647960E-03
              -3.1829431255396643E-03
               4.5189561496101188E-03
               1.4995313645468306E-03
               1.0926448597194899E-02
              -8.1481043887212811E-04
              -3.1511223559825092E-03
              -2.6105441359695909E-03
               7.5855551510187347E-03
               5.4749116755697077E-03
               7.5049976105963725E-04
              -2.6256476640221667E-03
               2.3432620723292078E-03
              -9.6175541031428436E-03
               9.7818427413608189E-03
              -1.3034765752315434E-03
               6.3116572110086862E-03
              -4.5897799249518968E-03
              -1.9410397083606695E-03
              -3.7515968956894222E-03
              -3.3883486816239819E-03
               1.2714840815268477E-04
               8.0870341059885876E-05
               4.1502847433382104E-04
               1.1644535400786868E-03
               8.5917637180569009E-03
               6.7414191451045545E-03
              -1.1141896725509809E-02
               3.8022289192654883E-03
              -5.8864034323968827E-04
              -8.0458666228201367E-04
               7.6534968910218536E-03
               4.6450749039371672E-03
               4.4099112077284702E-04
              -2.0949604004091888E-03
              -1.0880942044169695E-02
              -5.3140649236469682E-03
               3.0601468476696213E-03
              -5.4236491489419499E-03
               2.2107571567269147E-03
               1.0926484246406359E-03
               1.3147591201291976E-03
              -8.4553562500177008E-04
              -3.8953533287425469E-03
               8.4315942156236393E-03
              -1.1076098536143901E-02
              -4.5592161867439852E-04
              -6.3736053593889592E-04
              -3.8701977079126271E-03
              -5.7845182908005440E-03
              -3.9995839209167033E-03
               5.1288131741195377E-03
               3.0199062205765238E-03
               2.3042533525253965E-03
              -8.0730583059264432E-03
              -1.0670901793625190E-02
               1.4831632011971144E-02
               2.8698413461546220E-03
               3.5781617324792935E-04
              -7.4849212502275887E-04
              -1.5259335484932713E-02
               7.1180005264504138E-03
               2.5390249215285917E-03
              -1.2927719596541315E-02
              -1.6752073238068116E-03
              -7.4103739247462167E-03
              -2.1830764354274792E-03
              -5.7231501596137820E-03
               1.1345158686566900E-02
               3.4826059539470296E-03
              -7.1216318980038822E-04
              -7.0073466731756726E-03
              -5.9196361171934438E-04
              -5.0651848906688455E-03
               4.2760916769519043E-03
               2.7424449787398528E-03
               4.0776347319671485E-03
              -1.6119991320028731E-03
               2.7668758886203585E-03
               6.3547566918149201E-03
               8.4546749470830341E-03
              -7.3506782720178746E-03
               1.3699221791875216E-03
               4.5097313860228538E-03
              -1.1315882535444350E-03
              -2.3455917798211670E-03
               1.1239173844452896E-02
              -6.6406801891076960E-03
              -1.2650802228236906E-02
               4.6916689156699463E-04
               5.8367764077990446E-03
              -7.2514252964049738E-04
               1.3736661823689192E-03
               5.5104427013332054E-04
              -8.5869312139405796E-03
               6.5477502870561121E-03
               6.5599954491666855E-03
              -2.9867836644220246E-03
               6.2474238791262651E-03
               4.9959956937637557E-04
              -1.4729663048358894E-03
               3.4986973138534626E-03
              -3.7405195216379393E-03
              -3.0363855255606522E-03
               1.9825275865732292E-03
               3.3830658457430496E-03
              -3.4849273033739940E-03
               9.2432933797998893E-04
              -9.8705769344225463E-05
         &END THERMOSTAT_ENERGY
         &RNG_INIT
Wiener process for Thermostat # 1        1 F T T  -5.7471544301821154E-01        1137249314.0        1911176908.0        2994872720.0        3326629191.0         682601280.0        2673460502.0             12345.0             12345.0             12345.0             12345.0             12345.0             12345.0             12345.0             12345.0             12345.0             12345.0             12345.0             12345.0
Wiener process for Thermostat # 2        1 F T T   2.0969681232866177E+00        2762067245.0         574546723.0        2228856905.0        3162951379.0        2006806977.0        3384972102.0        3692455944.0        1366884236.0        2968912127.0         335948734.0        4161675175.0         475798818.0        3692455944.0        1366884236.0        2968912127.0         335948734.0        4161675175.0         475798818.0
Wiener process for Thermostat # 3        1 F T T  -5.4513777267129615E-01        3624141898.0         707135864.0        3240065497.0        3706621555.0        3421292356.0         137218689.0        1015873554.0        1310354410.0        2249465273.0         994084013.0        2912484720.0        3876682925.0        1015873554.0        1310354410.0        2249465273.0         994084013.0        2912484720.0        3876682925.0
Wiener process for Thermostat # 4        1 F T T   1.5996517776155279E+00        2022223572.0        3360322190.0        3069373074.0         879237053.0         454656479.0        3771612007.0        2338701263.0        1119171942.0        2570676563.0         317077452.0        3194180850.0         618832124.0        2338701263.0        1119171942.0        2570676563.0         317077452.0        3194180850.0         618832124.0
Wiener process for Thermostat # 5        1 F T T  -1.2215338718948749E+00        2056296162.0        2290253155.0         723129890.0        2013793917.0        1608439658.0         987531539.0        1597262096.0        3906379055.0        3312112953.0        1016013135.0        4099474108.0         275305423.0        1597262096.0        3906379055.0        3312112953.0        1016013135.0        4099474108.0         275305423.0
Wiener process for Thermostat # 6        1 F T T   1.0633331324035600E+00        2838010739.0         797354402.0        3200224031.0        1622490213.0        2260288748.0        2466588448.0          97147054.0        3131372450.0         829345164.0        3691032523.0        3006063034.0        4259826321.0          97147054.0        3131372450.0         829345164.0        3691032523.0        3006063034.0        4259826321.0
Wiener process for Thermostat # 7        1 F T T  -5.6368533098807141E-02        3864020442.0        1507403634.0        2192286240.0        2862688159.0        3768088399.0         659608443.0         796079799.0        2105258207.0         955365076.0        2923159030.0        4116632677.0        3067683584.0         796079799.0        2105258207.0         955365076.0        2923159030.0        4116632677.0        3067683584.0
Wiener process for Thermostat # 8        1 F T T   1.6103813760859842E+00        3954826686.0        1008786096.0        1771614698.0         678664866.0        2756305326.0        2440693568.0        3281794178.0        2616230133.0        1457051261.0        2762791137.0        2480527362.0        2282316169.0        3281794178.0        2616230133.0        1457051261.0        2762791137.0        2480527362.0        2282316169.0
Wiener process for Thermostat # 9        1 F T T  -2.6308414231599997E-01        4118630685.0        2646750018.0        3810750348.0        2822976850.0        2377309982.0        3307949332.0        3777646647.0        1837464056.0        4204654757.0         664239048.0        4190510072.0        2959195122.0        3777646647.0        1837464056.0        4204654757.0         664239048.0        4190510072.0        2959195122.0
Wiener process for Thermostat # 10       1 F T T   6.8865013436939015E-01        2503148217.0        2539252388.0        3514857951.0         667097804.0        3085029364.0         250088737.0        4215590817.0        3862461878.0        1087200967.0        1544910132.0         936383720.0        1611370123.0        4215590817.0        3862461878.0        1087200967.0        1544910132.0         936383720.0        1611370123.0
Wiener process for Thermostat # 11       1 F T T   1.4474367799260914E+00        2764862777.0        2232605940.0        2909715621.0        1682569909.0        3116043955.0        3772568070.0        1683636369.0         362165168.0         814316280.0         869382050.0         980203903.0        2062101717.0        1683636369.0         362165168.0         814316280.0         869382050.0         980203903.0        2062101717.0
Wiener process for Thermostat # 12       1 F T T   4.6518613430657618E-01        1027028946.0        2196990685.0        3019655786.0          99175722.0        2332768742.0        3581576373.0         272317999.0         166758548.0         310112982.0         201045826.0        1680231254.0         118290799.0         272317999.0         166758548.0         310112982.0         201045826.0        1680231254.0         118290799.0
Wiener process for Thermostat # 13       1 F T T  -6.7681387234477408E-01        2824117938.0        1429565061.0        1824164456.0        1498802327.0        1116398601.0        2139681932.0        2245755202.0        1652682525.0        2865544364.0         721509566.0         209733568.0         592362218.0        2245755202.0        1652682525.0        2865544364.0         721509566.0         209733568.0         592362218.0
Wiener process for Thermostat # 14       1 F T T  -3.0481507854489076E-01        1705388184.0        2515548923.0        3934392958.0        2192231476.0         961390304.0        2747334218.0        3003961408.0        3529909391.0          14538032.0        3603919910.0         566682685.0        1235016484.0        3003961408.0        3529909391.0          14538032.0        3603919910.0         566682685.0        1235016484.0