 # Version information for this restart file 
 # current date 2022-11-29 17:25:53.617
 # current working dir /home/yx2892/comp-lab-class/Week12/Runs/water_new
 # Program compiled at                              Sat Dec 12 18:27:15 EST 2020
 # Program compiled on                                         cs001.nyu.cluster
 # Program compiled for                                                nyu-intel
 # Source code revision number                                       git:8c64c6e
 &GLOBAL
   PRINT_LEVEL  LOW
   PROJECT_NAME water_aimd_1ns_every0.5fs
   RUN_TYPE  MD
   WALLTIME 21600
 &END GLOBAL
 &MOTION
   &GEO_OPT
     OPTIMIZER  BFGS
     MAX_ITER  100
     MAX_DR     3.0000000000000001E-03
     &BFGS
     &END BFGS
   &END GEO_OPT
   &MD
     ENSEMBLE  NVT
     STEPS  2000000
     TIMESTEP     4.9999999999999994E-01
     STEP_START_VAL  1000
     TIME_START_VAL     4.9999999999999636E+02
     ECONS_START_VAL    -1.1023558357480233E+03
     TEMPERATURE     3.0000000000000000E+02
     &THERMOSTAT
       TYPE  GLE
       REGION  MASSIVE
       &GLE
         NDIM  5
         A_SCALE     1.0000000000000000E+00
         A_LIST     1.8595758612559999E+02    2.7263853498399998E-01    1.1526100454610001E+01   -3.6414578262600003E+01 \
             2.3173375816020001E+02
         A_LIST    -2.7809524712060002E-01    8.5951591808710006E-05    7.2189048017650004E-01   -1.9844539343859999E-01 \
             4.2409257583420001E-01
         A_LIST    -1.4825808131210000E+01   -7.2189048017650004E-01    1.3590902121280000E+00    5.1498896280349999E+00 \
            -9.9949268450990001E+00
         A_LIST    -1.0372189126880000E+01    1.9844539343859999E-01   -5.1498896280349999E+00    2.6661910891169999E+01 \
             1.1507715495310000E+01
         A_LIST     2.1801346360420001E+02   -4.2409257583420001E-01    9.9949268450990001E+00   -1.1507715495310000E+01 \
             3.0958394565589998E+02
         &THERMOSTAT_ENERGY
              -4.0943464409498526E-03
              -7.6080809304193556E-05
              -8.2930491345900462E-04
               7.8444389150494967E-03
              -6.2005127859871782E-03
               6.7654448114089442E-03
               1.6312397566677506E-03
              -6.0272697760352829E-03
               7.4013192724769507E-03
               5.0637841141822548E-03
               9.4842036836710122E-03
              -3.5661226658670895E-03
              -5.7460657141149328E-03
              -5.2830709755579139E-03
               2.7628858609959119E-04
              -4.6123968710647147E-03
               1.1667418517348392E-02
              -3.5453042348656343E-03
               6.5621023917307314E-03
              -6.2683092655300933E-03
               5.1662070445813025E-04
               1.5443262566401579E-03
              -1.0412176979062516E-03
               9.9512921830077501E-04
              -4.2337562815244105E-03
               2.3984690437224730E-03
               1.9097322995366710E-03
               2.5573594847907357E-03
               4.1455781818001136E-03
               8.7839960233494969E-04
              -6.8172653056274655E-03
              -2.3911264282304836E-04
              -1.1176823518390476E-04
               4.8276393313897636E-03
              -1.2015300702283153E-02
               1.1215868354874531E-02
              -1.6662608011556602E-03
               2.7051301615607702E-04
              -5.0475315754746047E-04
              -5.2720990332701346E-03
              -4.0471327806519330E-03
               1.8763156234949891E-03
               2.7714956718498250E-03
               7.3180037127651794E-03
              -4.6737187742015469E-03
               3.7190355355604869E-03
              -2.2824498417667841E-03
               4.3085541564206152E-03
              -1.0554246766373212E-03
              -5.3632443899421641E-03
               2.6864459395200147E-03
              -5.0049367714663428E-03
              -2.4836811612150315E-03
               7.6605071289568795E-03
              -5.1145617672946845E-03
               2.3468564810116988E-03
              -2.7519139161152990E-03
              -4.3131652758905551E-04
              -1.0922904512303815E-03
               5.6299487394768765E-03
               8.4602437722059159E-04
              -1.9084704656578474E-03
               1.4312393921274440E-02
              -4.1261014210968797E-03
               8.2987364282837990E-04
               2.3505940479807055E-05
              -1.0140176656585493E-02
               1.8975879502225203E-03
               1.5433468008517779E-02
               2.4240471398140123E-04
              -1.5046032101052155E-03
              -9.1878540993399222E-03
              -1.3182724952699963E-03
              -1.3545051240537855E-03
              -3.7239671720287930E-03
              -1.0857401958894359E-02
               3.0630490656775888E-03
               1.0331288234174511E-03
               8.8120568151038893E-03
              -8.9575726387773509E-03
               9.5724143386982565E-03
              -7.7985231814507359E-04
               2.0179232985844574E-04
              -1.8278117205149053E-03
               8.7699316480575515E-04
               5.7612927377480843E-03
              -6.1825535530177667E-04
              -1.0586295417098421E-03
               3.3145896734627332E-03
              -1.1011214467864887E-03
               1.6374530195684802E-03
              -7.5279296915882849E-03
               1.1005124954193458E-03
              -3.5253732330877028E-03
              -8.9432427408687402E-03
               4.0930703170605175E-03
               8.1835306699130465E-03
              -1.9805494915523690E-03
               4.4057005087153496E-03
               2.5821484931951922E-04
              -2.3339357222242974E-03
              -7.2970834346756308E-03
              -1.0658385521736052E-03
              -3.8732184617185500E-03
               5.7795413310397070E-03
               5.4741198291690194E-03
               1.5524522645748826E-03
               7.4374856069801864E-04
               2.6121031691251463E-03
              -7.3184025500147463E-03
               2.8690789518892824E-03
              -9.2157209845528901E-04
               2.0824624474617406E-03
               6.0160071464412631E-03
               3.2233215579481277E-03
               5.3469659442673973E-03
              -1.7561263610354198E-02
               4.6149312151859811E-03
               1.6321677241227916E-03
               3.8682638960760023E-03
               4.4004299712174623E-03
               1.4035739475702796E-03
              -2.4135986198158483E-03
              -7.8364929926100040E-04
              -3.6101842582580827E-03
              -8.6687369426260096E-04
               1.6791956478283720E-03
              -1.9359160707720552E-04
              -9.4328647886354723E-04
              -4.7906707724161843E-03
               7.0054182201304341E-05
               6.8187210219161614E-03
              -5.1697783081810673E-03
               8.8621833387263326E-03
               1.9989516501147343E-04
              -3.2858938785161411E-04
              -2.0346580640944146E-03
              -5.8908821502033672E-03
               4.0987187663265295E-03
              -8.9294612897072648E-03
               6.1350625939991183E-03
              -1.8424072943240388E-03
               1.8585214041209681E-02
              -4.6054145159030368E-03
              -1.6999707619076616E-03
               4.0261229165460536E-04
               8.0409097690144846E-03
               1.7431848626512821E-03
               1.5440371550051513E-03
              -4.1043781252384590E-03
              -8.1997630882193057E-03
               1.6079117579817382E-03
               1.9809720309671717E-03
              -2.1665310523607522E-03
               2.5884459595888155E-03
               1.0133371955457610E-03
               5.4484554232226926E-03
               3.4306068390730287E-04
              -4.5603253461259348E-03
               2.6654912227799996E-03
              -6.5175736770851193E-03
              -2.9077129712341879E-03
              -2.1032353917282733E-03
               5.4021754041169907E-04
               3.3473058064711204E-03
               6.5375916131980797E-03
               4.0122560945087789E-03
              -6.0339476749486105E-03
              -1.0840501510105228E-02
               7.4763410208615322E-03
               4.6617511197875910E-04
              -5.4256344273020344E-03
              -8.7581117649803363E-04
               1.0812236677011785E-04
              -5.3860376855353557E-03
               2.4965568184778246E-03
               1.3320210514150646E-03
               5.9706829870969300E-03
              -2.0181295449107680E-03
               3.6586986451818426E-03
              -3.7219987089193184E-03
               1.2615233538366020E-03
               3.9277810558605358E-03
              -8.6805616439200230E-03
               7.5358490652171761E-03
              -3.6162667909688567E-03
               1.1306501787666835E-03
              -6.6365092292968125E-04
              -3.8279095401806441E-03
              -1.4714120963096422E-03
               1.6317458759650865E-03
              -2.2871513338992614E-03
              -4.9580946908264400E-03
               4.0988304004586969E-03
               6.1391655007680471E-03
              -2.3608294306992831E-03
              -5.5884863818231045E-03
               2.7625958218135105E-03
              -2.2300860949680647E-03
              -7.6148307222654243E-04
               1.3980465243735663E-03
              -5.9227248089069769E-03
               1.1251745875783196E-02
              -2.1476243156503773E-03
              -2.8662030878950188E-03
              -3.3170666293163738E-03
              -1.6910170604819059E-03
               2.3594617733195540E-03
               3.1658747874849892E-04
               1.1641970489405301E-03
               6.8041315597811803E-03
              -4.8128141484699141E-04
               3.8749219219390172E-03
              -1.1008026682784751E-02
               2.7480713399080159E-04
               3.9560811398072155E-03
              -4.2681420423915139E-03
               5.4894418646378685E-03
               1.4987499731961820E-04
              -6.8072303692508591E-03
              -2.6231374545591614E-03
               2.3235504462339645E-03
              -9.6041290818606206E-04
               5.8837598926170008E-03
              -2.2374234672432349E-04
              -1.1258298917128013E-03
               1.9202450831478550E-03
               2.7764317948111212E-03
              -3.8350995942293365E-03
               1.5742222976654824E-03
              -6.7732133069699826E-03
               2.5862386603720373E-03
               3.0215977347828982E-03
              -4.3554093163706252E-03
               3.6962700043050075E-03
               1.8885915143868298E-04
              -2.0190700179317520E-03
               1.5732694860521354E-03
               6.2962248911525021E-03
               1.3735562820549720E-03
               6.9148420134176501E-04
              -1.0164380009878814E-02
               4.6421459574433020E-03
               1.4917961940050005E-03
              -2.6852576514460537E-03
               1.9765006924894538E-03
               6.1946155419477554E-03
              -6.8013577914627626E-03
              -7.5492598153384925E-04
               7.2631354769873936E-05
              -1.3644391124310100E-04
              -7.0881064941604369E-05
              -5.8420978252421802E-03
              -3.7755173835625567E-03
               3.3757238598662418E-03
              -2.1578281925470301E-03
               1.0430653870508731E-02
              -3.3388039363369559E-03
               2.8868715593127862E-03
              -8.5539604840535743E-03
               8.5834037883341149E-03
               2.5554603514907582E-03
               3.0101972679240992E-03
               1.4712450601459303E-03
               8.2859513529450410E-03
              -4.5212157161444652E-03
              -2.1033295838332106E-03
              -2.9080758457132099E-03
              -6.7080959494202732E-03
               5.0670951193478699E-03
              -1.1282231641969438E-03
              -3.3435125478345801E-03
               1.4694373830420869E-03
               7.4309188711616453E-03
               2.9970002117600657E-03
               2.0946137832065473E-03
              -2.1640126614811989E-02
               1.3990911258046195E-02
              -3.9842458705728265E-03
               6.0147160804666011E-03
              -3.5767373445560299E-03
               2.6651318274740969E-03
               1.2454357101793375E-02
              -1.8108088767139275E-03
              -1.0014702748595138E-02
              -5.6858651293784862E-03
               3.0925195200543626E-03
              -5.6242522142497947E-03
              -1.9665625867902963E-03
              -3.6166340839291562E-03
               8.9224243283944800E-05
               3.8344544396754074E-03
               8.9847785877075256E-03
              -3.5049502764346561E-03
              -7.1588258037732296E-04
               5.0596640509594894E-03
              -5.3457156580388066E-03
              -1.6817701914417606E-03
              -2.4599425514401918E-03
              -9.2103840550405872E-04
              -2.1989291156354332E-03
               7.4951018115018142E-03
               8.8584480620199535E-04
              -1.5108434489363310E-03
               4.8702317530890625E-03
              -8.5599320574614741E-03
               2.9473725061674176E-03
              -2.1427521103198808E-03
              -3.5815142047778093E-03
               1.1126046205423826E-02
              -4.8802426539301330E-03
              -7.8858714046937482E-03
               2.2508498718177535E-03
               7.9069247062096438E-03
               1.7097333558563955E-03
               6.6647607334900773E-03
               9.6673912340345639E-04
               1.8612377128480429E-03
              -3.3083695002468737E-03
              -6.3663741821603165E-03
               9.1663511456023215E-03
              -6.5538550274472970E-03
              -8.0849409867964923E-03
               1.0647059050218250E-02
              -3.4184383824713660E-03
               2.4298813048451791E-03
               2.4354691842329570E-03
               6.2961050686313382E-03
              -3.8936812979471869E-03
              -4.6807592907969105E-03
              -6.2175060963873914E-03
              -7.5352216761483699E-03
               1.0729788644454223E-02
              -1.2756995879353028E-03
               2.5644190835024845E-03
               1.5708816280204105E-04
               1.6936355791502218E-02
               1.8023704614993578E-03
              -1.0084279230352506E-02
               4.1668456291105837E-03
               7.5890621001049033E-03
              -8.9014986532554730E-03
               8.6997493968415810E-04
               1.9080170028354148E-03
              -8.9433210633658663E-04
              -1.0889890486823520E-02
               4.3335664868444455E-03
              -1.0284501711859341E-03
               4.2565045252400046E-03
              -9.2948567163466506E-05
              -3.2802176118504403E-03
               1.9708387721664136E-03
              -7.2765583011507647E-03
               1.9439459593721680E-03
              -6.1618313518642482E-03
               1.0349163384468596E-02
               7.1857523205811930E-04
              -1.4056705567612054E-03
              -4.5874339967066401E-03
               7.2729952773831572E-03
              -1.1579963053550155E-03
              -3.6240768335788918E-04
              -1.0667797643111300E-02
              -2.8186826027580083E-03
              -5.9777367857571614E-04
               1.3294442903055254E-02
               3.8898513079540843E-03
              -6.7095378932140030E-04
              -3.8343250233604125E-03
              -1.6132408243238258E-04
               1.8712875090191564E-03
              -2.3013286061320105E-03
              -7.3303787372245568E-03
              -5.9684730116447236E-03
               7.2653701811857272E-03
              -1.0119438102014938E-02
               8.6263377960376572E-03
               3.3887394187619192E-03
              -1.0032319878319205E-03
               5.7997884112552501E-04
               1.2620467960682499E-03
              -3.2639639909205060E-04
               1.5399978129122050E-02
              -2.7793476431205296E-03
              -1.4737951788720354E-02
               1.0338772358459331E-02
              -5.1623566689935124E-03
              -4.9538536340809616E-03
              -2.7188053173300662E-03
              -8.9562479520673643E-04
              -6.9179334533269517E-03
               1.2993797689412227E-02
              -4.6544680558110253E-04
              -1.6699788474635814E-03
              -4.8773458537762545E-03
               1.4504275906266973E-03
              -1.8438396852303910E-03
              -8.1894597630036473E-04
               4.8643007308436592E-03
              -1.0086072935402816E-02
               3.0577641632002894E-03
               1.1321950198839387E-02
              -9.5053665498144990E-03
               9.0922847379949229E-03
               7.7366691361328037E-03
              -1.6965889769153676E-03
               2.4578041090853827E-03
               7.6224735861198586E-03
              -9.0986635123320447E-03
               3.1696803544760976E-03
               5.6158348286157542E-04
               8.1330893362652396E-04
              -2.2274610200688385E-03
               4.2477638727202258E-03
              -5.9768971333634315E-03
              -3.1501121887290528E-03
               5.0463423419217154E-03
              -2.0038788308349362E-03
              -3.4355010852900997E-03
               1.0221424713342460E-02
              -1.5492759527378384E-03
               2.4464616581402841E-03
               4.9032827534955343E-06
               3.4888798668474153E-03
              -3.0328240717869835E-04
              -1.9164703527163097E-03
              -8.3214089358580288E-03
               4.8834983878403302E-03
              -2.4648275168529534E-03
               1.0310161143295060E-03
               9.2811244402526034E-03
              -8.8370062527776717E-03
               7.0200282551318089E-05
              -9.8393437501204410E-04
               2.8268174848482095E-03
              -1.0427550192825229E-02
               1.4171205974101593E-03
               4.2546119468952412E-03
               7.7401742479168045E-04
               6.3312456038342431E-03
              -2.4485867884085290E-03
              -8.6927759671319021E-03
               3.4671176410332703E-03
               4.9947692197262212E-03
              -3.3337050619300810E-03
              -6.0029885430863969E-03
               1.4159063927943957E-03
               4.6666948015849771E-03
               3.5990522765642330E-03
              -1.1665611388410127E-03
              -7.0642294562431524E-04
              -2.1896003382270075E-03
               3.4851949902046284E-03
              -2.6570182926324323E-03
              -6.5135783244042265E-03
              -4.2906805161236142E-03
               1.5346290066212798E-02
              -1.6137409433458528E-03
              -1.1360440640484731E-02
              -4.9012108578563021E-03
               4.2331955571899178E-03
              -5.7139997829485489E-03
               3.1997180410130478E-03
              -8.9594138144213334E-04
               5.7942655883686540E-03
               7.6146768754052161E-03
              -2.7214259506001498E-03
              -1.1936737366134475E-03
              -3.1731645867337796E-03
               1.7724297511909357E-03
               2.4700194076754255E-03
               7.6316035837795618E-03
              -3.2080124618377019E-03
              -2.6533782385697179E-03
               5.3755037445471403E-03
               4.8150924210525504E-03
               5.7971225925172740E-03
               1.6994780955947237E-03
              -3.2525938249870876E-03
               4.6819084991708403E-03
              -6.7134150604850288E-03
               3.7619996615921468E-03
               2.3545707330474880E-03
               3.8819963199947984E-03
              -7.3611263162660749E-03
              -9.8553222115598145E-04
              -1.5818931350280857E-03
              -3.5399108664830115E-03
              -1.9315570944298741E-03
              -1.4308085971425463E-03
              -1.1675187966647110E-03
              -1.7330703467791342E-03
               9.8349639279196122E-04
               1.2904318181679529E-02
              -6.7466639685654847E-03
               2.5696485722435992E-03
               1.2773476942182635E-03
              -1.7894833157299531E-04
               2.2026413839127748E-03
               3.7615931828763136E-03
               3.4845080190722679E-03
              -1.6668907320660587E-04
              -5.7986309895302485E-03
              -6.5905641937845448E-04
               1.8146441183608578E-03
              -3.7813172911924514E-03
               1.1892666331668501E-03
               3.0063994297637952E-03
               2.8644789942344827E-03
              -1.7009543306136107E-04
               1.5898294766719435E-03
               1.0915387634071618E-02
              -1.7111948845997125E-02
              -3.7786244811322000E-04
              -6.9358208934886152E-04
               2.3567304784736340E-03
              -9.0791911220219745E-03
               4.9776945367065225E-03
               4.9924797250718179E-03
              -1.5168000958210599E-03
               6.6621697082556389E-03
              -1.3351867262433313E-02
              -4.5267043798796107E-03
               8.2901865489781127E-03
               1.3165870386736254E-03
               6.3778205432313175E-04
              -6.9130015795667949E-03
              -6.8809213013256232E-03
               4.8958335008576145E-03
              -2.5885552634117492E-03
              -5.9971898647367553E-03
               6.5114277929861041E-04
              -3.7952098295440289E-03
              -1.7996592674881275E-03
               3.4798349910862185E-03
               4.5594759964563344E-03
               9.1593012106570176E-04
              -1.6838545623349718E-03
              -9.1503291556811056E-03
              -5.0678494524763996E-04
              -3.8773301222353039E-03
               1.0684054922485875E-03
              -6.9309446112832845E-04
               4.2218038678253781E-03
               3.0490993573926172E-03
              -1.1835134381608390E-03
               7.5895657640651379E-03
               2.3087879173035405E-03
              -6.7492014346971115E-03
              -1.0912290886835787E-03
               3.4368377166837309E-03
              -4.2447681133021596E-03
               2.4122460473191603E-04
               4.7046161228593677E-03
               1.4602754122097967E-03
              -1.2936532580584753E-02
               4.1724186777048018E-03
               3.3917895703945164E-03
              -2.4816052142644521E-03
               6.8977459333862399E-04
              -1.2529080882520290E-03
              -1.0656163583067299E-03
              -1.9959989125255674E-03
               1.1422717517264888E-02
              -3.9284799310191527E-03
               8.9680217641632219E-03
               1.3104308721367992E-03
               9.6641971416968958E-05
              -4.0093852206741672E-03
              -4.2524113961489307E-03
              -6.0461203228136988E-03
              -9.0494504024765470E-04
               9.7221679722448197E-03
               3.9592060380968033E-03
              -3.4216184864350879E-03
               2.0844254639427206E-03
         &END THERMOSTAT_ENERGY
         &RNG_INIT
Wiener process for Thermostat # 1        1 F T T  -9.8236738167888460E-01         226733040.0        4248387519.0        1164353849.0        2758509449.0        3644127687.0        1764793484.0             12345.0             12345.0             12345.0             12345.0             12345.0             12345.0             12345.0             12345.0             12345.0             12345.0             12345.0             12345.0
Wiener process for Thermostat # 2        1 F T T  -1.4171306107827426E+00        1528154308.0        2775625301.0         197130159.0        1452211673.0        1835562137.0        1983376171.0        3692455944.0        1366884236.0        2968912127.0         335948734.0        4161675175.0         475798818.0        3692455944.0        1366884236.0        2968912127.0         335948734.0        4161675175.0         475798818.0
Wiener process for Thermostat # 3        1 F T T   8.6049543281786645E-01        2248570378.0        1724762616.0          52903713.0        3229622658.0        3199004837.0        4241126217.0        1015873554.0        1310354410.0        2249465273.0         994084013.0        2912484720.0        3876682925.0        1015873554.0        1310354410.0        2249465273.0         994084013.0        2912484720.0        3876682925.0
Wiener process for Thermostat # 4        1 F T T  -1.5460863137690717E+00         957380376.0         510326667.0        2247033635.0        2033071685.0        3054261466.0        3462352516.0        2338701263.0        1119171942.0        2570676563.0         317077452.0        3194180850.0         618832124.0        2338701263.0        1119171942.0        2570676563.0         317077452.0        3194180850.0         618832124.0
Wiener process for Thermostat # 5        1 F T T   1.5428690481661575E-01        4203301200.0         738999836.0        1485820986.0          20648636.0        2223680357.0        4294941489.0        1597262096.0        3906379055.0        3312112953.0        1016013135.0        4099474108.0         275305423.0        1597262096.0        3906379055.0        3312112953.0        1016013135.0        4099474108.0         275305423.0
Wiener process for Thermostat # 6        1 F T T   7.0411917217518150E-01        1265311014.0        3687607523.0        1792102642.0         142025920.0         459804801.0        1211121065.0          97147054.0        3131372450.0         829345164.0        3691032523.0        3006063034.0        4259826321.0          97147054.0        3131372450.0         829345164.0        3691032523.0        3006063034.0        4259826321.0
Wiener process for Thermostat # 7        1 F T T  -9.5744195640119531E-02        4040223344.0        4246262317.0         329086624.0          28777921.0        2946509694.0        1489700490.0         796079799.0        2105258207.0         955365076.0        2923159030.0        4116632677.0        3067683584.0         796079799.0        2105258207.0         955365076.0        2923159030.0        4116632677.0        3067683584.0
Wiener process for Thermostat # 8        1 F T T  -1.2413826789147817E-01         252045112.0        2848200345.0         154646410.0        1271924195.0        1873079261.0        3351978939.0        3281794178.0        2616230133.0        1457051261.0        2762791137.0        2480527362.0        2282316169.0        3281794178.0        2616230133.0        1457051261.0        2762791137.0        2480527362.0        2282316169.0
Wiener process for Thermostat # 9        1 F T T   1.0331244080464512E+00        3784506675.0        1914172684.0        3527875272.0        1610827989.0        3855196701.0        1117597481.0        3777646647.0        1837464056.0        4204654757.0         664239048.0        4190510072.0        2959195122.0        3777646647.0        1837464056.0        4204654757.0         664239048.0        4190510072.0        2959195122.0
Wiener process for Thermostat # 10       1 F T T   2.1466585360569199E-01        3057685686.0        2869029583.0         411221469.0        2821893460.0         322924656.0        1143227575.0        4215590817.0        3862461878.0        1087200967.0        1544910132.0         936383720.0        1611370123.0        4215590817.0        3862461878.0        1087200967.0        1544910132.0         936383720.0        1611370123.0
Wiener process for Thermostat # 11       1 F T T  -4.4132046785776799E-02        1554543736.0        2717576499.0        4135075403.0        2618383353.0         642871762.0         249586537.0        1683636369.0         362165168.0         814316280.0         869382050.0         980203903.0        2062101717.0        1683636369.0         362165168.0         814316280.0         869382050.0         980203903.0        2062101717.0
Wiener process for Thermostat # 12       1 F T T  -5.6161533877704317E-01        1770324141.0        3770017049.0         190859559.0         764828178.0        2918138424.0         736540625.0         272317999.0         166758548.0         310112982.0         201045826.0        1680231254.0         118290799.0         272317999.0         166758548.0         310112982.0         201045826.0        1680231254.0         118290799.0
Wiener process for Thermostat # 13       1 F T T   9.7554409384929153E-01        3627045108.0        1898589428.0        2752141753.0          85759421.0        2499273175.0        1137986601.0        2245755202.0        1652682525.0        2865544364.0         721509566.0         209733568.0         592362218.0        2245755202.0        1652682525.0        2865544364.0         721509566.0         209733568.0         592362218.0
Wiener process for Thermostat # 14       1 F T T   1.0647643612361006E+00        2907287648.0        2703557765.0        1318952540.0         278138330.0        3506335210.0        2737196551.0        3003961408.0        3529909391.0          14538032.0        3603919910.0         566682685.0        1235016484.0        3003961408.0        3529909391.0          14538032.0        3603919910.0         566682685.0        1235016484.0